%nprocshared=50
%mem=10GB
%chk=Thymine6311-freq-solv-ES6.chk
#p freq td=(nstates=10,root=6) cam-b3lyp/6-311+g(d,p) scrf=(solvent=water,pcm) symm=loose

Thymine solvated ES6

0 1
 N                 -0.23116500   -0.03514100   -0.18765400
 C                  1.09636800   -0.36199700   -0.13809100
 N                  1.94348500    0.69304100    0.00032900
 C                  1.50712400    1.98843900    0.09404600
 C                  0.20304000    2.31854000    0.06271900
 C                 -0.75796100    1.24199500   -0.07948600
 H                 -0.88878300   -0.81342800   -0.33325900
 O                  1.49365400   -1.52662400   -0.21211700
 H                  2.93787700    0.46073000    0.03200700
 H                  2.28981400    2.72780600    0.19929700
 O                 -1.97580900    1.41239500   -0.10837600
 C                 -0.29891800    3.72357300    0.17088900
 H                 -0.87752100    4.00062600   -0.71272100
 H                 -0.95505300    3.83780300    1.03618000
 H                  0.53192900    4.42132000    0.27266400
 O                 -2.15696300   -2.18939200   -0.54554000
 H                  0.53501800   -3.05163200    0.41373900
 O                  4.21975900   -1.00420200    0.05234000
 H                 -3.35010900    0.32965200    0.14120600
 H                 -2.95662300   -1.69659900   -0.24878600
 H                 -2.33746200   -2.49333900   -1.44134400
 O                 -0.11605400   -3.71233600    0.69918400
 H                 -0.95379500   -3.34536300    0.37492700
 H                  3.43773200   -1.55481700   -0.12498900
 H                  4.87117100   -1.22696000   -0.61976500
 O                 -4.00852300   -0.39484300    0.18979200
 H                 -4.41687100   -0.34438100    1.05940400

