%Nproc=32
%Mem=120Gb
%chk=temp.chk
#p cam-b3lyp/6-31+G(d,p) nosymm charge Freq 

Calculation for S0 with freq for abs spect

0  1
 C         15.67001       17.52951       16.07990
 C         17.29263       15.73382       15.50664
 C         17.69386       15.59301       16.75284
 C         17.02629       16.30618       17.76575
 N         16.02668       17.20797       17.42578
 H         17.67125       15.12497       14.63812
 H         18.45954       14.96849       17.03646
 O         17.17321       16.07324       18.97937
 O         14.84122       18.33227       15.79511
 N         16.36929       16.69331       15.18925
 H         15.95504       16.77448       14.32139
 H         15.50575       17.72944       18.15479
 O         17.60431       12.83337       20.12789
 H         18.43160       12.73730       20.59968
 H         17.68536       13.66957       19.66915
 O         16.30297       16.38970       21.48894
 H         16.87457       16.10385       20.77634
 H         15.42600       16.39583       21.10539
 O         21.15781       16.71767       17.72691
 H         20.51462       16.10776       18.08826
 H         21.09458       16.59947       16.77914
 O         19.66910       14.25190       18.24021
 H         20.56309       14.05580       18.52048
 H         19.41677       13.50234       17.70102
 O         18.43175       20.09585       17.04879
 H         17.94492       19.85973       17.83840
 H         19.21709       20.53618       17.37374
 O         14.93737       18.05075       13.08306
 H         14.31107       17.35129       13.26943
 H         14.94519       18.11776       12.12824
 O         12.19428       18.08031       14.51540
 H         12.14638       17.97680       13.56502
 H         12.00024       17.20932       14.86175
 O         17.66107       12.01783       14.21695
 H         18.15547       12.44633       13.51825
 H         16.91017       12.59227       14.36668
 O         17.87458       18.58972       11.73505
 H         17.98383       19.14248       12.50884
 H         17.38182       19.13278       11.11982
 O         14.25286       13.09438       17.29936
 H         14.71719       13.92410       17.18890
 H         13.78134       13.19154       18.12668
 O         19.01771       15.87709       12.06679
 H         18.85006       15.89076       13.00910
 H         18.74126       16.74110       11.76129
 O         15.77392       13.93432       14.10089
 H         14.98388       14.43485       13.89708
 H         16.25366       13.89569       13.27350
 O         19.10113       12.45445       16.47219
 H         18.71634       11.76293       17.01067
 H         18.56189       12.47101       15.68151
 O         17.10292       19.87703       19.46545
 H         17.43143       19.80624       20.36172
 H         16.80484       20.78350       19.39000
 O         19.07130       20.13455       14.14444
 H         19.84659       20.69594       14.14237
 H         18.94454       19.90382       15.06472
 O         21.59475       16.44353       14.99913
 H         20.98790       16.88539       14.40522
 H         21.97114       15.73635       14.47520
 O         13.62840       15.25969       12.95183
 H         12.93911       14.78979       13.42121
 H         13.45712       15.07695       12.02798
 O         14.88433       20.73760       13.74744
 H         15.21328       19.83876       13.73703
 H         15.43495       21.18726       14.38841
 
       23.64721       21.34730        4.13160       -0.834
       23.14758       20.93506        4.83634        0.417
       24.35274       20.72830        3.94374        0.417
       29.82780       10.89285       15.86578       -0.834
       29.62533       11.24670       16.73183        0.417
       29.43911       10.01812       15.86707        0.417
       13.00196       29.59789       18.25026       -0.834
       13.34668       29.92373       19.08166        0.417
       12.40858       30.28642       17.95014        0.417
       26.94182       20.85398       16.08354       -0.834
       27.25674       20.86455       16.98739        0.417
       26.01249       20.63634       16.15573        0.417
       28.72246       24.73490       13.49701       -0.834
       28.53155       25.65225       13.30142        0.417
       28.87494       24.71767       14.44183        0.417
       19.37668        4.17562       13.41814       -0.834
       19.18228        5.08172       13.65779        0.417
       19.16984        3.66986       14.20405        0.417
       12.45248       19.07098       29.43426       -0.834
       12.44973       18.25477       29.93428        0.417
       13.29832       19.47202       29.63414        0.417
       18.29688       24.45062        5.78181       -0.834
       18.24788       25.00128        6.56322        0.417
       18.07107       25.03748        5.06011        0.417
       14.56363       27.18952       10.54052       -0.834
       14.62139       27.57086       11.41658        0.417
       14.67597       26.24925       10.68019        0.417
       18.41352       23.05160       28.83970       -0.834
       17.91741       23.85323       29.00549        0.417
       19.29630       23.35515       28.62807        0.417
       13.06738       27.59900       16.44455       -0.834
       13.94963       27.27437       16.26433        0.417
       13.20345       28.37331       16.99060        0.417
       16.76301        5.10938       15.03366       -0.834
       17.64898        5.47122       15.05247        0.417
       16.28484        5.67676       14.42897        0.417
       13.36889        6.69878       22.05776       -0.834
       12.85336        6.10863       22.60747        0.417
       14.18962        6.23005       21.90637        0.417
       19.21776        6.60913       14.67449       -0.834
       20.08972        6.45408       15.03765        0.417
       19.26213        7.49449       14.31340        0.417
       24.58303       23.33462       20.50538       -0.834
       24.65567       22.39220       20.65634        0.417
       25.31073       23.54047       19.91861        0.417
        5.74320        5.08096       16.31490       -0.834
        6.45423        5.52253       16.77931        0.417
        5.93989        5.21858       15.38829        0.417
       20.47938       26.52740       16.56136       -0.834
       21.28334       26.01082       16.61626        0.417
       20.71205       27.37458       16.94135        0.417
       19.23821       18.52850       29.43337       -0.834
       19.97483       18.78209       29.98952        0.417
       19.02221       17.63864       29.71216        0.417
        9.43673       28.82879       21.85940       -0.834
        9.77075       29.06372       20.99368        0.417
        9.80667       27.96312       22.03257        0.417
       16.77974       11.46410       11.18777       -0.834
       16.87882       12.40435       11.03832        0.417
       17.31891       11.05535       10.51068        0.417
        5.47617       13.83159       19.59828       -0.834
        5.39423       13.12914       18.95324        0.417
        5.20555       13.43137       20.42462        0.417
       15.56951       20.49304        3.77276       -0.834
       14.67259       20.23047        3.56581        0.417
       15.57003       20.61818        4.72174        0.417
       25.77647        7.09290        9.69968       -0.834
       25.42265        6.53554        9.00658        0.417
       25.17738        7.83849        9.73736        0.417
       21.04215        6.78748       25.99606       -0.834
       21.19264        6.41138       26.86332        0.417
       20.74427        6.05024       25.46317        0.417
       15.66188        2.97212       13.75622       -0.834
       16.16196        3.73308       14.05132        0.417
       15.76077        2.33196       14.46096        0.417
        6.71915        8.44994       13.16223       -0.834
        6.51395        8.52451       14.09419        0.417
        6.83851        9.35350       12.86972        0.417
        4.37337        8.16544       15.38762       -0.834
        4.46076        7.26171       15.69073        0.417
        3.62786        8.14626       14.78753        0.417
       24.00169       15.77377       22.02581       -0.834
       23.52758       15.90077       21.20403        0.417
       24.73884       15.20936       21.79283        0.417
       11.96531       17.32304       23.48661       -0.834
       11.26648       16.98346       22.92754        0.417
       11.85956       16.85424       24.31442        0.417
       10.04782       21.07240       11.24248       -0.834
       10.43976       21.56533       10.52162        0.417
        9.12237       21.31625       11.22472        0.417
       17.80061       11.46992       28.26676       -0.834
       17.71531       11.02431       29.10961        0.417
       18.29203       10.85699       27.71990        0.417
       24.66546        9.56614        6.84096       -0.834
       25.10072       10.38949        6.61991        0.417
       25.22682        8.88900        6.46335        0.417
        8.53651       20.86890       25.91015       -0.834
        8.44843       21.38557       25.10920        0.417
        8.58510       19.96234       25.60681        0.417
       21.03082       23.64358       28.56096       -0.834
       20.67369       24.52314       28.43824        0.417
       21.59893       23.50728       27.80274        0.417
       12.78755       20.47614       15.49902       -0.834
       13.30811       20.55579       14.69970        0.417
       12.39393       19.60540       15.44330        0.417
       28.34828       20.77092       20.89144       -0.834
       29.20098       20.34480       20.80445        0.417
       27.95806       20.37052       21.66838        0.417
        4.38147       15.94902       18.18518       -0.834
        4.54680       15.30688       18.87551        0.417
        5.16851       16.49364       18.17051        0.417
       10.80346       28.12083       14.42651       -0.834
       11.34791       27.90285       13.67002        0.417
       11.37624       27.98549       15.18139        0.417
       10.06425       20.56685        5.03643       -0.834
        9.97813       21.20597        5.74378        0.417
        9.35796       19.93986        5.19221        0.417
        5.14725       26.43269       13.00009       -0.834
        5.19252       25.83703       12.25218        0.417
        5.90655       26.20330       13.53588        0.417
       14.31504       16.20195       28.23461       -0.834
       14.61999       16.88693       27.63957        0.417
       15.11668       15.82194       28.59405        0.417
       26.98004       16.85359       24.14181       -0.834
       26.78814       16.97427       23.21184        0.417
       27.90399       16.60465       24.16586        0.417
       12.29909       22.59014       17.27794       -0.834
       12.37755       21.82184       16.71243        0.417
       13.07958       23.11002       17.08611        0.417
       26.63679       24.17881        9.07635       -0.834
       27.28472       24.41249        8.41166        0.417
       26.60714       23.22227        9.05676        0.417
       22.45602       13.17821        8.92213       -0.834
       21.77273       12.94305        8.29440        0.417
       22.06945       13.87989        9.44601        0.417
       13.05349       24.58377        8.38399       -0.834
       12.83315       25.30204        7.79089        0.417
       13.75186       24.10743        7.93498        0.417
        6.75435        7.61904       10.58952       -0.834
        6.04141        7.07192       10.25996        0.417
        6.53140        7.77683       11.50692        0.417
       10.50925        7.10455       18.82046       -0.834
       10.05804        6.68737       18.08656        0.417
       11.37472        6.69587       18.83367        0.417
       30.65243       14.98147       14.78496       -0.834
       31.51956       14.77570       15.13420        0.417
       30.76757       15.81803       14.33424        0.417
       28.89093       16.27223        9.05738       -0.834
       29.69074       15.74776        9.01895        0.417
       29.19355       17.15664        9.26356        0.417
       11.09814       13.55057       10.70931       -0.834
       10.46003       13.68808       10.00921        0.417
       11.40124       14.43028       10.93396        0.417
        9.19254        9.09680       27.11828       -0.834
        9.05988        9.11438       28.06610        0.417
        8.75272        8.29729       26.82919        0.417
        7.48097       20.28149        8.68535       -0.834
        7.57174       19.85239        9.53615        0.417
        7.19136       19.58565        8.09530        0.417
       19.85993       20.64862        4.74576       -0.834
       19.77273       20.80550        5.68599        0.417
       19.75463       21.51265        4.34752        0.417
       26.01474       11.97979        5.81137       -0.834
       25.58459       12.81272        6.00486        0.417
       26.95036       12.17772        5.85211        0.417
       21.20553       24.53607       25.01896       -0.834
       21.10878       24.53883       24.06667        0.417
       20.33554       24.30993       25.34792        0.417
       15.58840        2.31580       18.70597       -0.834
       16.25240        1.93327       19.27957        0.417
       15.84526        3.23391       18.62042        0.417
       10.30152       12.82915       13.13809       -0.834
       11.04004       12.49257       13.64555        0.417
       10.67693       13.05043       12.28584        0.417
       26.54357       28.50683       16.35788       -0.834
       27.01699       28.25196       17.14980        0.417
       26.34300       27.67896       15.92127        0.417
        5.53068       18.66856       26.66999       -0.834
        4.61850       18.61408       26.38506        0.417
        5.86232       19.46821       26.26159        0.417
        8.17256       18.57938        5.07528       -0.834
        7.44131       19.19362        5.14025        0.417
        7.80501       17.81471        4.63209        0.417
        7.82096       29.23764       14.99140       -0.834
        7.04332       28.84521       15.38827        0.417
        8.53877       28.65766       15.24558        0.417
        5.93608       24.01318       11.76428       -0.834
        5.36244       23.28851       11.51522        0.417
        6.81214       23.72466       11.50835        0.417
       23.54778       17.59933       16.70257       -0.834
       22.81630       17.01972       16.48994        0.417
       23.16236       18.27939       17.25502        0.417
       30.15114       22.39771       18.79446       -0.834
       29.95489       21.55833       18.37834        0.417
       30.69926       22.17082       19.54567        0.417
       17.64547       27.91977       22.08346       -0.834
       16.93248       27.45261       21.64798        0.417
       18.44073       27.58099       21.67233        0.417
       18.15510        6.37102        6.00348       -0.834
       17.79392        5.50520        5.81338        0.417
       17.38752        6.92914        6.12822        0.417
       14.12264        4.43400       12.06651       -0.834
       14.52575        3.87512       12.73089        0.417
       14.47429        5.30687       12.24166        0.417
        8.29871       19.63941       21.87496       -0.834
        8.30787       19.48924       22.82026        0.417
        8.61142       18.81689       21.49826        0.417
       10.94996        8.79308        8.39184       -0.834
       11.54068        8.21315        8.87242        0.417
       10.90692        9.58701        8.92481        0.417
       22.35088       10.99581       18.09281       -0.834
       22.56658       10.72710       17.19978        0.417
       22.04481       10.19432       18.51727        0.417
       24.41990       12.99611       24.63002       -0.834
       25.22379       13.15332       24.13475        0.417
       24.26113       12.05667       24.53792        0.417
       15.10158       27.31239        7.67401       -0.834
       15.17962       27.00111        8.57582        0.417
       14.62403       28.13884        7.74588        0.417
        7.03185       16.70284       23.13505       -0.834
        6.68980       16.03133       23.72524        0.417
        6.27064       16.98889       22.63011        0.417
       26.54143       21.30111        8.55390       -0.834
       26.86596       20.42408        8.34961        0.417
       26.56335       21.34851        9.50967        0.417
       22.16867       26.62994       10.14249       -0.834
       22.99296       26.14675       10.08502        0.417
       22.05999       26.80885       11.07652        0.417
       25.19897       19.25319       12.36587       -0.834
       25.10451       18.44699       12.87316        0.417
       24.93678       19.01014       11.47794        0.417
       10.26032       18.91603        8.21475       -0.834
       11.05293       19.20821        8.66490        0.417
        9.70326       19.69369        8.18053        0.417
       15.47683       17.77305       26.36654       -0.834
       16.27733       18.14768       26.73408        0.417
       15.31845       18.27974       25.57004        0.417
       11.57317       31.07260       13.97744       -0.834
       11.59559       30.21343       14.39882        0.417
       10.83194       31.52055       14.38506        0.417
       11.05931       21.58575       22.71285       -0.834
       11.55367       21.08967       22.06036        0.417
       11.50983       21.41100       23.53912        0.417
       16.72270        7.17085       27.15245       -0.834
       17.34550        7.88849       27.03689        0.417
       17.22554        6.38182       26.95044        0.417
       20.58637       26.02407       20.01940       -0.834
       20.93378       26.05174       20.91091        0.417
       21.04145       25.28975       19.60719        0.417
       22.84317       14.01606       12.38732       -0.834
       22.44232       13.60397       13.15265        0.417
       23.77705       14.05000       12.59458        0.417
       16.88747       13.53854       22.79113       -0.834
       17.13649       13.14371       21.95547        0.417
       16.47224       14.36686       22.55092        0.417
       25.92235       26.60187       14.53188       -0.834
       26.54293       26.89025       13.86259        0.417
       25.07141       26.90766       14.21785        0.417
       16.90048       17.50675        1.81333       -0.834
       17.39525       17.29452        2.60478        0.417
       17.56657       17.76270        1.17532        0.417
        7.71869       15.56504       17.05289       -0.834
        7.82976       16.07229       16.24878        0.417
        7.32923       16.18110       17.67340        0.417
       15.64150       28.88299       12.69019       -0.834
       16.43145       29.33926       12.98007        0.417
       15.14010       29.54766       12.21791        0.417
        3.21698       21.79238       12.08547       -0.834
        2.63886       22.32332       11.53765        0.417
        3.94318       21.55533       11.50868        0.417
       19.49929       25.98783       28.07237       -0.834
       19.35831       26.43177       27.23612        0.417
       18.68153       26.11613       28.55304        0.417
       23.72177        8.42335       14.35311       -0.834
       24.38603        7.75638       14.17947        0.417
       23.45523        8.72812       13.48576        0.417
       15.20812       11.45223       19.92184       -0.834
       14.68353       12.20204       20.20261        0.417
       16.06249       11.82504       19.70439        0.417
       22.09804       29.61631       20.97752       -0.834
       22.10165       28.81198       21.49643        0.417
       21.83089       29.33597       20.10215        0.417
       17.90801       22.09162        8.38694       -0.834
       17.97478       22.81348        9.01199        0.417
       18.77200       22.04824        7.97721        0.417
       12.69243       12.40840       14.59145       -0.834
       12.73526       11.50725       14.27156        0.417
       13.59678       12.62614       14.81724        0.417
        5.30569       16.37579        9.82338       -0.834
        5.52513       16.63058       10.71958        0.417
        5.90658       15.65786        9.62402        0.417
       26.91999       21.77646       18.70778       -0.834
       27.80789       21.59054       19.01322        0.417
       26.35343       21.28971       19.30637        0.417
       14.78025       17.18151       10.18777       -0.834
       15.32783       16.46110        9.87567        0.417
       14.94603       17.89388        9.57030        0.417
       27.82800       13.50230       10.50966       -0.834
       27.93822       13.67201       11.44523        0.417
       26.90807       13.70204       10.33627        0.417
       11.61089       15.04176       15.41371       -0.834
       11.83266       14.13665       15.19503        0.417
       11.09960       14.97543       16.22020        0.417
        9.61062       24.07140       19.52668       -0.834
        9.37608       24.52612       20.33566        0.417
        9.64059       24.76118       18.86370        0.417
        5.10979       21.21864       10.26943       -0.834
        4.46224       20.78181        9.71617        0.417
        5.91369       20.71508       10.14132        0.417
       15.04279       24.58704       10.56927       -0.834
       14.88570       24.03195       11.33310        0.417
       14.28201       24.44211       10.00674        0.417
       16.58160       14.89506        1.26391       -0.834
       17.47287       14.55247        1.33107        0.417
       16.66477       15.82409        1.47887        0.417
       16.69142       21.36974       30.47163       -0.834
       17.11263       21.25487       31.32346        0.417
       17.34458       21.82514       29.94039        0.417
       24.81681       16.01142       19.02748       -0.834
       24.34328       16.39895       18.29137        0.417
       24.95594       15.09999       18.77024        0.417
       17.50037       10.04210       21.33032       -0.834
       17.29633       10.71223       21.98264        0.417
       16.73226       10.02108       20.75952        0.417
        8.36561       26.58290       14.09381       -0.834
        8.39213       25.66500       14.36399        0.417
        9.27537       26.87547       14.14825        0.417
       13.75416       20.12562        9.92663       -0.834
       14.68882       19.96870       10.06086        0.417
       13.68742       20.41315        9.01608        0.417
       16.33521       15.31488        8.82289       -0.834
       17.15733       15.31862        8.33264        0.417
       15.66230       15.48740        8.16436        0.417
        5.38704       11.16814       14.24310       -0.834
        5.18599       11.99392       14.68345        0.417
        4.58567       10.94817       13.76806        0.417
        9.93506       22.66432        6.59299       -0.834
       10.00970       22.91519        7.51371        0.417
        9.44623       23.38070        6.18793        0.417
        6.96272       14.03509        9.09374       -0.834
        6.15569       13.88138        8.60251        0.417
        7.55323       13.33739        8.80956        0.417
       11.56995       19.49250       25.20160       -0.834
       11.61135       18.88185       25.93755        0.417
       11.61443       18.93527       24.42460        0.417
        9.58698       16.28232        2.32326       -0.834
       10.10400       16.77105        2.96364        0.417
       10.23399       15.79083        1.81724        0.417
        7.20676       10.10140       23.63197       -0.834
        6.72107       10.48766       22.90317        0.417
        8.12676       10.20431       23.38859        0.417
       21.75648       24.63298       13.41474       -0.834
       22.11447       23.93656       12.86423        0.417
       21.91967       25.43679       12.92129        0.417
       20.42058       17.98710        4.45766       -0.834
       20.95960       17.93600        3.66831        0.417
       20.33582       18.92482        4.63009        0.417
       25.23658       13.52988        9.84252       -0.834
       24.59249       12.95978        9.42256        0.417
       24.84440       14.40231        9.80665        0.417
       16.70418        6.86174       20.95116       -0.834
       17.02889        7.16373       21.79945        0.417
       16.13219        7.56694       20.64826        0.417
       12.30962       22.20042       25.25535       -0.834
       13.23265       22.32562       25.47575        0.417
       12.15710       21.26420       25.38366        0.417
       11.79292       10.37742       28.88466       -0.834
       12.51394       10.66062       28.32239        0.417
       12.22008       10.05166       29.67690        0.417
       15.70795       22.53137       18.94970       -0.834
       15.00474       22.21781       19.51838        0.417
       15.25561       22.94104       18.21228        0.417
        8.36635       17.17928       14.90478       -0.834
        8.54378       16.44119       14.32170        0.417
        8.11167       17.89211       14.31892        0.417
       21.22050       30.63663       17.82923       -0.834
       20.42957       31.12601       18.05544        0.417
       21.05457       29.75044       18.15076        0.417
       13.48639       28.93603       22.85454       -0.834
       13.09101       28.08124       23.02556        0.417
       14.35514       28.88262       23.25285        0.417
       18.83061        8.94523       26.53452       -0.834
       19.66602        8.61863       26.86869        0.417
       18.88654        8.82210       25.58693        0.417
        8.35359       25.55325       21.80261       -0.834
        8.67317       26.44706       21.67931        0.417
        8.50808       25.36880       22.72908        0.417
       26.65162       14.09144       23.16896       -0.834
       26.64014       14.99401       23.48752        0.417
       26.90252       14.16511       22.24818        0.417
       12.28782       16.18837        9.96666       -0.834
       11.85260       16.97583        9.63992        0.417
       13.16902       16.48050       10.19990        0.417
        6.04163       14.62173       24.38444       -0.834
        5.34860       14.93205       24.96722        0.417
        6.61305       14.09979       24.94773        0.417
        3.37819       21.68975       17.54450       -0.834
        3.15460       21.35776       16.67501        0.417
        4.05740       21.09436       17.86137        0.417
       21.82229       20.54851        8.96177       -0.834
       21.23470       20.89307        8.28928        0.417
       21.40822       20.79177        9.78979        0.417
       20.99211       21.89087       14.91626       -0.834
       21.64233       22.37609       14.40832        0.417
       21.33570       21.89225       15.80967        0.417
       20.13131       24.52015        8.83794       -0.834
       19.37454       24.50060        9.42372        0.417
       20.76039       25.09217        9.27759        0.417
       17.75584       29.31873        8.08322       -0.834
       16.96006       29.67314        8.47991        0.417
       18.36058       29.20737        8.81679        0.417
       27.01558        9.56698       12.06082       -0.834
       26.29441       10.18158       11.92511        0.417
       27.78370       10.12320       12.19062        0.417
        8.16007        8.41510       16.14321       -0.834
        7.80753        9.30298       16.08313        0.417
        9.09439        8.51502       15.96075        0.417
       16.05786       10.08673       26.54537       -0.834
       16.49322       10.50138       27.29018        0.417
       16.54404       10.39555       25.78084        0.417
        7.63810       15.46409       20.71853       -0.834
        7.11670       14.95353       20.09909        0.417
        7.24744       15.27726       21.57218        0.417
        9.30185        6.42078       10.38925       -0.834
        8.49624        6.93080       10.30495        0.417
        9.50182        6.13871        9.49669        0.417
       27.14453       22.41165       23.79904       -0.834
       27.24803       21.60369       23.29633        0.417
       26.31789       22.29820       24.26812        0.417
       19.87105       28.32785        9.90782       -0.834
       20.57597       28.74124       10.40624        0.417
       20.31734       27.71247        9.32613        0.417
        9.10186        4.31471       15.31696       -0.834
        9.16868        3.82413       16.13616        0.417
        9.97731        4.67767       15.18250        0.417
        2.18010       15.39688       11.88315       -0.834
        2.36274       16.31999       12.05846        0.417
        1.23159       15.35906       11.76010        0.417
        2.28428       18.27385       12.15160       -0.834
        2.71422       18.64777       11.38246        0.417
        1.49622       18.80460       12.26777        0.417
       19.19659       14.87103        8.21220       -0.834
       19.69049       14.41535        8.89385        0.417
       19.81398       15.50899        7.85433        0.417
       22.17167       16.80298       11.92919       -0.834
       22.20868       15.84769       11.97738        0.417
       22.98610       17.09564       12.33819        0.417
       17.23333       28.81068       18.81171       -0.834
       17.43346       29.70386       19.09172        0.417
       17.25990       28.84729       17.85558        0.417