%Nproc=32
%Mem=120Gb
%chk=temp.chk
#p cam-b3lyp/6-31+G(d,p) nosymm charge Freq 

Calculation for S0 with freq for abs spect

0  1
 C         15.67001       17.52951       16.07990
 C         17.29263       15.73382       15.50664
 C         17.69386       15.59301       16.75284
 C         17.02629       16.30618       17.76575
 N         16.02668       17.20797       17.42578
 H         17.67125       15.12497       14.63812
 H         18.45954       14.96849       17.03646
 O         17.17321       16.07324       18.97937
 O         14.84122       18.33227       15.79511
 N         16.36929       16.69331       15.18925
 H         15.95504       16.77448       14.32139
 H         15.50575       17.72944       18.15479
 O         18.75891       12.02223       16.17285
 H         18.73233       12.56505       15.38489
 H         19.19757       11.21794       15.89550
 O         17.48402       19.59504       13.81988
 H         18.08016       20.34343       13.84740
 H         16.76952       19.87821       13.24932
 O         15.57182       12.71836       19.40891
 H         14.62298       12.70017       19.28398
 H         15.69703       13.20000       20.22657
 O         12.50817       14.44467       14.44593
 H         12.00420       14.40370       15.25869
 H         12.87114       15.33029       14.43301
 O         14.15686       16.93283       12.69768
 H         14.72435       16.34326       13.19427
 H         14.64035       17.10781       11.89031
 O         12.88840       17.12387       20.57607
 H         11.96763       17.28867       20.37294
 H         13.34396       17.91260       20.28178
 O         18.08677       17.61496       11.66007
 H         17.67575       17.80202       12.50405
 H         17.35298       17.47622       11.06129
 O         20.69932       18.83119       17.10988
 H         20.92682       19.53794       16.50574
 H         19.84282       18.52607       16.81063
 O         12.97244       14.07214       19.64973
 H         13.09449       14.95676       19.99439
 H         12.36453       13.65776       20.26207
 O         21.12271       17.10206       14.19977
 H         20.48276       16.66282       14.75993
 H         20.93713       16.77356       13.32007
 O         12.06828       16.51298       17.31014
 H         11.85020       15.58552       17.40221
 H         11.66293       16.93138       18.06965
 O         16.24230       15.30468       13.68376
 H         16.10873       14.48563       14.16078
 H         17.10642       15.21074       13.28287
 O         13.53811       20.35966       17.24385
 H         12.63046       20.26884       16.95374
 H         14.00080       19.64090       16.81312
 O         19.47786       13.75567       14.21787
 H         19.53083       14.26484       13.40906
 H         19.98716       14.25970       14.85254
 O         15.40072       12.76028       14.58729
 H         14.54377       12.40869       14.34594
 H         15.67779       12.22694       15.33228
 
       13.48773        4.94893       13.97524       -0.834
       12.55249        5.02830       14.16302        0.417
       13.80538        4.30354       14.60674        0.417
       19.94584       29.50159        9.80874       -0.834
       19.90532       30.04900       10.59292        0.417
       20.72041       28.95424        9.93792        0.417
        9.80556        8.05635       21.88774       -0.834
        9.12811        8.50893       21.38528        0.417
        9.67845        7.13020       21.68208        0.417
       28.34073       20.85960       16.07562       -0.834
       28.76195       21.67134       15.79298        0.417
       27.86574       21.10007       16.87110        0.417
       10.73744       10.22786       26.39652       -0.834
       10.43647       10.10481       25.49624        0.417
       11.68564       10.33410       26.32016        0.417
       15.15642       23.04858       10.53488       -0.834
       14.38697       23.57892       10.32767        0.417
       15.63874       23.56690       11.17904        0.417
       16.65551       10.79618       21.70891       -0.834
       16.72374       11.12336       20.81195        0.417
       16.81477       11.56437       22.25733        0.417
       18.85250       21.65304        8.13664       -0.834
       19.80226       21.69352        8.02466        0.417
       18.59573       22.55340        8.33574        0.417
       24.15010       27.35846       13.36918       -0.834
       23.60237       26.76677       13.88505        0.417
       24.23245       26.92838       12.51802        0.417
       13.51008       19.74046       20.11046       -0.834
       13.53235       20.64752       20.41538        0.417
       13.42587       19.80898       19.15944        0.417
       17.61851       21.41921        5.77290       -0.834
       17.75482       21.61374        6.70016        0.417
       18.44450       21.65980        5.35327        0.417
       16.52047       22.77558       25.61249       -0.834
       16.82819       23.64414       25.35337        0.417
       17.29748       22.21931       25.55719        0.417
       22.03798       16.84524       11.35473       -0.834
       21.46348       16.10722       11.55847        0.417
       22.16819       16.79373       10.40782        0.417
       18.75208       25.34181       28.97323       -0.834
       19.38744       25.53795       29.66176        0.417
       18.96343       24.44949       28.69876        0.417
       27.91877       13.77656       24.03580       -0.834
       28.54545       14.31315       23.55044        0.417
       27.76069       13.02105       23.46972        0.417
       28.74541       11.05942       20.51742       -0.834
       28.67829       10.27360       21.05985        0.417
       27.84751       11.23362       20.23518        0.417
       22.79533       15.96138       20.03683       -0.834
       21.91244       16.26690       20.24514        0.417
       23.27733       16.04117       20.85996        0.417
       12.80879       11.84951       13.73850       -0.834
       12.36450       11.15001       14.21760        0.417
       12.34481       12.64706       13.99321        0.417
       11.26303        7.95415       10.19610       -0.834
       11.62053        7.10107       10.44244        0.417
       11.46506        8.52267       10.93920        0.417
        8.47578       12.91389       24.88411       -0.834
        7.60707       12.53169       25.00861        0.417
        8.97126       12.23805       24.42155        0.417
        8.28088       27.97603       13.33655       -0.834
        8.57003       27.06476       13.38353        0.417
        8.55030       28.26871       12.46593        0.417
       12.34489       19.90222        4.67530       -0.834
       12.55990       20.57544        4.02971        0.417
       11.51086       20.18618        5.04947        0.417
       16.85777        8.25423        5.57745       -0.834
       16.04130        8.64553        5.88809        0.417
       17.21800        8.90073        4.97041        0.417
       29.63653       15.44953       18.61592       -0.834
       30.15172       15.76510       17.87348        0.417
       30.02238       14.60068       18.83228        0.417
       26.98442       13.76760       26.71390       -0.834
       26.80209       12.82910       26.76087        0.417
       27.34000       13.89929       25.83501        0.417
        6.33410       11.77544       18.66943       -0.834
        5.78040       11.05631       18.97355        0.417
        6.88242       11.99165       19.42364        0.417
       14.97166       19.04860        5.18962       -0.834
       14.04596       19.28690        5.23987        0.417
       15.41801       19.86551        4.96678        0.417
       25.45336       19.39076       18.48720       -0.834
       25.84710       19.34458       17.61596        0.417
       24.55092       19.09875       18.35850        0.417
        5.08073       20.58305       24.25080       -0.834
        5.14483       19.82439       23.67065        0.417
        5.10699       20.21322       25.13328        0.417
       14.84784       26.68250       27.20696       -0.834
       15.59146       26.97990       27.73119        0.417
       14.80850       27.29832       26.47522        0.417
       28.81867       12.49908       14.36644       -0.834
       29.39086       12.23599       15.08728        0.417
       28.45410       13.33952       14.64389        0.417
       25.05274       10.86136       15.32404       -0.834
       25.76084       11.39438       15.68559        0.417
       24.79975       10.28005       16.04119        0.417
       23.22823       21.07265       27.59945       -0.834
       22.69603       21.85130       27.43606        0.417
       23.84567       21.34232       28.27936        0.417
        5.85669        6.61520       16.83213       -0.834
        5.81360        6.74560       17.77942        0.417
        6.43620        7.31029       16.52030        0.417
       18.72674        8.42582       23.68472       -0.834
       18.38685        8.33937       22.79408        0.417
       19.03177        9.33153       23.73832        0.417
       10.24954       25.67041       13.41837       -0.834
       10.69392       24.94370       12.98174        0.417
       10.84918       25.93374       14.11646        0.417
       19.47838        9.00831       11.84577       -0.834
       18.61323        8.99190       11.43653        0.417
       19.85032        8.14713       11.65534        0.417
       12.80479       14.06001       26.29798       -0.834
       12.28434       13.29170       26.53263        0.417
       12.65186       14.68029       27.01079        0.417
       19.10136       21.53442       14.36370       -0.834
       19.88822       21.00792       14.22268        0.417
       19.12931       22.19730       13.67375        0.417
       12.86782       29.14825       22.94221       -0.834
       13.52906       29.82980       23.06255        0.417
       12.08351       29.62124       22.66407        0.417
       25.00183       23.93806       16.19452       -0.834
       25.62512       23.27198       16.48449        0.417
       25.44009       24.77032       16.37204        0.417
       15.32548       20.13111        1.41908       -0.834
       14.59392       20.72579        1.25351        0.417
       15.46044       20.17441        2.36573        0.417
       21.11570        4.07912       14.07141       -0.834
       20.20703        4.27122       13.83980        0.417
       21.53546        4.93749       14.12831        0.417
       22.59973       13.78604       23.51596       -0.834
       21.81007       14.28998       23.31920        0.417
       23.31972       14.39663       23.35772        0.417
        5.84438       16.43734       25.67128       -0.834
        6.51463       16.58873       25.00488        0.417
        5.07586       16.15066       25.17790        0.417
        5.63180       19.33523       26.58571       -0.834
        5.50645       18.40650       26.39082        0.417
        5.89686       19.35383       27.50529        0.417
       18.97322       21.51944       17.07223       -0.834
       19.12235       22.45798       17.18683        0.417
       19.14950       21.35988       16.14504        0.417
       14.47065       22.88781       13.44925       -0.834
       15.21037       23.01720       14.04280        0.417
       14.75775       22.19390       12.85571        0.417
       20.12978       24.44822       21.59643       -0.834
       20.28195       24.81390       20.72502        0.417
       20.79811       23.76966       21.69199        0.417
       15.57336       16.60627        3.80280       -0.834
       15.19347       17.19489        4.45506        0.417
       16.36345       17.05669        3.50431        0.417
        8.50228       27.71697       17.06842       -0.834
        9.21584       27.14927       17.35961        0.417
        8.32016       28.27901       17.82153        0.417
       12.67452       30.89288       13.92964       -0.834
       12.13713       31.55482       13.49458        0.417
       13.48082       30.86200       13.41471        0.417
       23.56885       16.00759       25.70767       -0.834
       23.04797       16.33658       24.97508        0.417
       24.41192       16.45264       25.62166        0.417
       23.64218       12.12423       25.95173       -0.834
       22.77105       11.79012       26.16555        0.417
       23.52370       12.59143       25.12474        0.417
        5.74171       13.17909        6.05545       -0.834
        6.16354       13.01219        6.89832        0.417
        5.47362       14.09695        6.09882        0.417
       14.27417       22.56746       20.00841       -0.834
       14.64109       22.88874       20.83205        0.417
       15.02987       22.47795       19.42778        0.417
       26.14124        6.21190       11.40274       -0.834
       26.34824        5.28482       11.28480        0.417
       26.29969        6.37682       12.33222        0.417
       16.55558        7.15825       24.37423       -0.834
       17.34031        7.69252       24.49667        0.417
       15.92088        7.51861       24.99352        0.417
       21.41823        7.64889       15.87180       -0.834
       21.95699        7.29604       16.57995        0.417
       21.95636        7.54626       15.08687        0.417
       26.85823       16.06866       22.64651       -0.834
       27.62823       16.60739       22.82847        0.417
       26.75207       15.52932       23.43013        0.417
       23.20042       21.34327       17.32071       -0.834
       23.78406       21.36042       16.56222        0.417
       23.44358       20.54680       17.79266        0.417
        7.94848       20.63151       20.40669       -0.834
        7.96605       21.51899       20.04848        0.417
        8.20677       20.73713       21.32231        0.417
        6.54935       28.61943       15.21927       -0.834
        6.97338       28.43236       14.38175        0.417
        7.08077       28.15546       15.86623        0.417
       20.83906       23.52784       24.46477       -0.834
       21.79567       23.56065       24.45762        0.417
       20.57725       23.98596       23.66613        0.417
       19.20641       13.74333       28.20407       -0.834
       18.82885       12.92636       28.53000        0.417
       18.46372       14.21968       27.83295        0.417
       26.62880       20.02884       12.22345       -0.834
       25.86376       19.66304       11.77946        0.417
       27.37483       19.58188       11.82359        0.417
       15.91194       13.15777       28.77632       -0.834
       15.00517       12.85368       28.81531        0.417
       15.84390       14.08916       28.56627        0.417
       12.44416       11.30691       16.98447       -0.834
       12.19552       10.97295       17.84637        0.417
       13.38485       11.14027       16.92474        0.417
       11.66358       25.38118       26.00935       -0.834
       11.33288       26.27897       26.03813        0.417
       12.50383       25.44934       25.55596        0.417
       21.00048       12.85442       18.02009       -0.834
       20.50704       12.25899       17.45598        0.417
       21.26286       13.57063       17.44180        0.417
       15.89018       25.37772       17.38503       -0.834
       15.77512       25.69262       16.48846        0.417
       15.28851       24.63687       17.45825        0.417
       27.11455       12.70962        9.19455       -0.834
       26.71424       12.00688        8.68254        0.417
       27.72742       12.26224        9.77805        0.417
       18.63875       25.69791       15.51865       -0.834
       17.72195       25.82589       15.76221        0.417
       18.98692       26.58412       15.42042        0.417
       10.45028       15.87578       25.17653       -0.834
       11.06863       16.55967       24.91932        0.417
       10.93607       15.05862       25.06478        0.417
       13.73484       11.94732        4.04593       -0.834
       13.28278       12.72292        4.37809        0.417
       13.85910       12.12302        3.11323        0.417
       12.01030       21.23134       25.12662       -0.834
       11.29940       21.75618       25.49458        0.417
       11.95274       21.37766       24.18242        0.417
        7.91535       23.31048       13.76248       -0.834
        7.88312       22.58594       13.13779        0.417
        8.83246       23.58458       13.76499        0.417
       23.97651       18.82047       29.28277       -0.834
       24.89187       19.08649       29.36990        0.417
       23.49453       19.64313       29.19817        0.417
       12.21526       21.57234        8.27838       -0.834
       12.14112       22.50950        8.45854        0.417
       11.60560       21.41770        7.55683        0.417
       29.01963       21.55889        8.57441       -0.834
       28.15266       21.70749        8.95193        0.417
       28.85443       21.02706        7.79589        0.417
       19.27459        8.70276       27.37838       -0.834
       18.32084        8.78098       27.35644        0.417
       19.43620        7.76467       27.47885        0.417
       12.14815       19.18130       26.82156       -0.834
       12.02562       19.92620       26.23305        0.417
       11.27577       18.79667       26.90668        0.417
       20.90959       17.02894       25.92873       -0.834
       20.92108       17.53002       26.74421        0.417
       21.25735       16.17032       26.16972        0.417
       16.52843        4.32883       23.94476       -0.834
       16.67393        5.08196       24.51735        0.417
       16.34799        4.71148       23.08612        0.417
       20.51840       11.40433        4.17713       -0.834
       19.86533       11.09548        4.80509        0.417
       20.43726       10.80734        3.43332        0.417
       27.81258       15.06532       13.45515       -0.834
       27.14154       15.11921       14.13561        0.417
       27.34465       14.75268       12.68086        0.417
       15.53261       21.49528        4.07860       -0.834
       14.72326       21.99123        4.20194        0.417
       16.09509       21.76991        4.80278        0.417
       20.16380       27.84482       14.45837       -0.834
       20.79955       27.53606       13.81282        0.417
       20.65131       27.87122       15.28169        0.417
        3.01412       19.07954       14.71641       -0.834
        3.43494       19.46843       15.48316        0.417
        3.66224       18.46447       14.37308        0.417
       19.27115       27.45042       26.42344       -0.834
       19.21181       27.28278       25.48290        0.417
       20.12382       27.09695       26.67689        0.417
       23.98057       16.23451       22.39890       -0.834
       23.73385       17.15747       22.45818        0.417
       24.92830       16.24756       22.26522        0.417
        2.85995       19.62778       12.02407       -0.834
        3.00440       19.49004       12.96023        0.417
        1.91112       19.72092       11.93880        0.417
       12.55516       14.58112        4.90801       -0.834
       12.25529       15.48519        4.81332        0.417
       13.00304       14.56418        5.75379        0.417
       16.70467       29.28527        9.79217       -0.834
       17.62191       29.05230        9.93577        0.417
       16.60491       30.13863       10.21412        0.417
       10.31770       11.87546       15.46627       -0.834
       11.06717       11.63182       16.00955        0.417
        9.55421       11.59504       15.97094        0.417
       15.80621       31.91488       17.11664       -0.834
       16.14239       32.31703       17.91758        0.417
       15.67296       30.99551       17.34738        0.417
        8.25774       14.29011       27.25468       -0.834
        7.35515       14.50736       27.02151        0.417
        8.61638       13.87877       26.46829        0.417
       18.55984       28.21324       12.53545       -0.834
       18.80234       29.13137       12.41523        0.417
       18.87539       27.99451       13.41228        0.417
       17.28255       24.86359       24.07765       -0.834
       17.78015       24.48898       23.35081        0.417
       17.07088       25.75197       23.79092        0.417
       19.05631       16.59336        4.64474       -0.834
       19.33872       17.48771        4.83610        0.417
       19.63553       16.30450        3.93955        0.417
       19.88221       11.68105       11.80954       -0.834
       19.88113       10.73301       11.67738        0.417
       19.96968       11.79127       12.75634        0.417
       10.65190        7.67430       24.66146       -0.834
        9.76897        7.55447       25.01120        0.417
       10.51809        7.87139       23.73438        0.417
       29.46360       14.42369        9.76427       -0.834
       28.64385       14.28844        9.28892        0.417
       29.30427       14.04670       10.62956        0.417
       12.58932       11.38583       21.65974       -0.834
       12.89237       10.87641       22.41132        0.417
       12.56931       12.28951       21.97469        0.417
        9.60180       13.26273        9.12779       -0.834
        9.99366       12.41728        9.34663        0.417
       10.11462       13.90060        9.62414        0.417
        4.84492       12.71003       11.72520       -0.834
        3.98800       12.48601       12.08817        0.417
        4.90147       13.66151       11.81308        0.417
        5.38676       26.27902       19.97599       -0.834
        5.19356       27.17433       19.69792        0.417
        6.33356       26.27037       20.11640        0.417
       11.56769       14.71127       10.31258       -0.834
       11.21822       15.39727       10.88136        0.417
       12.07137       14.14678       10.89900        0.417
       21.36185       19.79073       14.53666       -0.834
       21.58026       18.87316       14.37355        0.417
       22.20061       20.24937       14.48809        0.417
       16.55116       22.50224       18.40185       -0.834
       16.99668       21.81672       17.90403        0.417
       17.18695       22.76811       19.06616        0.417
       10.58477       24.82280       19.35698       -0.834
       10.21551       24.63076       18.49501        0.417
       10.86204       25.73725       19.30096        0.417
       21.51438       10.27128       26.68645       -0.834
       22.03889       10.05828       27.45830        0.417
       20.66560        9.86109       26.85243        0.417
       22.44702       27.77800       10.11781       -0.834
       22.35114       27.44887        9.22410        0.417
       23.35432       27.58050       10.35024        0.417
       17.90331       15.83427       26.95583       -0.834
       18.33024       16.67619       27.11433        0.417
       17.62576       15.87446       26.04063        0.417
       13.22528        5.75890        7.05259       -0.834
       12.99559        5.45951        6.17291        0.417
       12.83344        6.62964        7.11969        0.417
       19.52383       13.73427       23.10544       -0.834
       19.31108       13.03008       23.71789        0.417
       19.93115       13.29046       22.36157        0.417
        8.12516       25.39071       11.20862       -0.834
        8.63057       25.91845       10.59033        0.417
        8.70574       25.28184       11.96182        0.417
       23.12882       25.65185       15.29393       -0.834
       22.37294       25.08908       15.12610        0.417
       23.87882       25.05730       15.27842        0.417
       18.60553        1.97989       16.93172       -0.834
       18.19004        2.77814       16.60553        0.417
       19.45402        1.95303       16.48947        0.417
       13.77473        9.83096       19.62103       -0.834
       13.25954       10.41928       20.17301        0.417
       13.98289        9.08947       20.18944        0.417
        7.93155       16.50669        7.57524       -0.834
        7.12991       16.22212        8.01412        0.417
        8.30628       15.70288        7.21511        0.417
        9.57336       27.89853       23.79620       -0.834
        9.23286       28.13601       24.65869        0.417
        9.83447       26.98195       23.88532        0.417
       17.79877        7.02226        9.44016       -0.834
       17.51312        7.93360        9.50415        0.417
       18.28552        6.98056        8.61701        0.417
       10.15200       17.37663       15.26119       -0.834
       10.81515       17.22607       15.93482        0.417
       10.62347       17.81803       14.55470        0.417
       19.09969       21.44913       25.68199       -0.834
       19.74976       22.11336       25.45302        0.417
       19.51954       20.61711       25.46359        0.417
        5.40566       23.50322       24.13215       -0.834
        5.25319       22.58190       24.34231        0.417
        6.15700       23.75111       24.67091        0.417
       13.79172       26.95428       21.81923       -0.834
       13.45748       26.82661       20.93142        0.417
       13.22547       27.62883       22.19416        0.417
       23.48604       17.66579       15.35217       -0.834
       22.71171       17.28824       14.93491        0.417
       23.25682       17.71890       16.28000        0.417
        6.93373       10.70750       16.21726       -0.834
        6.32723       11.27130       15.73714        0.417
        6.61791       10.72959       17.12059        0.417
       12.81546       27.70390       12.17230       -0.834
       12.65949       27.97474       11.26756        0.417
       13.76874       27.69017       12.25776        0.417
       31.02846       17.31067       16.95069       -0.834
       30.09432       17.48839       16.84095        0.417
       31.45839       17.88877       16.32046        0.417
        8.81251       24.10671       16.54817       -0.834
        9.31386       23.38636       16.16612        0.417
        8.10558       24.26536       15.92261        0.417
       21.45585       21.38622        8.43440       -0.834
       21.87752       21.09261        9.24200        0.417
       21.70141       20.72932        7.78292        0.417
       18.74390       18.73531       28.34227       -0.834
       18.85016       18.60982       29.28524        0.417
       19.63727       18.82056       28.00934        0.417
       18.91008       11.47944        8.58110       -0.834
       19.72188       11.98145        8.65329        0.417
       18.22324       12.14252        8.51168        0.417
       13.64240       17.09108       30.93610       -0.834
       13.96428       17.42150       31.77482        0.417
       13.76291       17.82081       30.32848        0.417
       13.48620        1.96498       12.45801       -0.834
       14.14655        2.65791       12.46219        0.417
       12.65471        2.42651       12.34915        0.417
       26.87652       11.22804       17.20635       -0.834
       26.60228       11.51121       18.07861        0.417
       27.80000       11.47421       17.15341        0.417
       28.62276       17.20582        9.45434       -0.834
       28.52837       17.77894        8.69351        0.417
       29.48761       16.80908        9.35011        0.417
       10.61183       20.83896       10.48498       -0.834
       11.36433       21.23282       10.04358        0.417
       10.55018       19.95846       10.11463        0.417
       23.58227       23.08097       24.58172       -0.834
       23.83946       22.81265       23.69962        0.417
       24.10572       23.86300       24.75687        0.417
       27.43326        8.67289       16.32460       -0.834
       27.31737        7.85819       16.81354        0.417
       26.91126        9.31657       16.80358        0.417
       10.38464       11.07037       20.10360       -0.834
       10.42008       12.00547       19.90221        0.417
       11.11595       10.92634       20.70415        0.417
       23.18409       23.70478       11.48992       -0.834
       23.80915       23.28185       12.07870        0.417
       22.50749       23.04378       11.34324        0.417
       11.77304       16.50428        1.88326       -0.834
       11.91932       16.68919        2.81096        0.417
       12.65177       16.45472        1.50696        0.417
       22.92018        5.02629       21.06432       -0.834
       22.31616        5.67353       21.42829        0.417
       23.14216        4.46203       21.80497        0.417
       21.99079       22.45338       21.50738       -0.834
       22.02956       22.42958       20.55126        0.417
       22.79997       22.02794       21.79104        0.417
        5.92930       12.85625       14.37657       -0.834
        6.85393       12.70202       14.18294        0.417
        5.48164       12.70766       13.54365        0.417
       18.53243       16.08003       24.28312       -0.834
       19.38277       16.32386       24.64875        0.417
       18.70874       15.29069       23.77118        0.417
        8.37194        8.05183       13.16178       -0.834
        8.43268        8.86784       12.66512        0.417
        7.92611        8.29699       13.97256        0.417
       11.25321       10.19849        6.77359       -0.834
       11.59789       10.91830        7.30209        0.417
       11.30910       10.51467        5.87185        0.417
       21.66275       14.81465       15.85194       -0.834
       22.10701       14.36497       15.13315        0.417
       22.10341       15.66214       15.91368        0.417
       28.96530       22.87102       20.49369       -0.834