%Nproc=32
%Mem=120Gb
%chk=temp.chk
#p cam-b3lyp/6-31+G(d,p) nosymm charge Freq 

Calculation for S0 with freq for abs spect

0  1
 C         15.67001       17.52951       16.07990
 C         17.29263       15.73382       15.50664
 C         17.69386       15.59301       16.75284
 C         17.02629       16.30618       17.76575
 N         16.02668       17.20797       17.42578
 H         17.67125       15.12497       14.63812
 H         18.45954       14.96849       17.03646
 O         17.17321       16.07324       18.97937
 O         14.84122       18.33227       15.79511
 N         16.36929       16.69331       15.18925
 H         15.95504       16.77448       14.32139
 H         15.50575       17.72944       18.15479
 O         18.10728       16.85559       21.09154
 H         17.64926       17.21709       21.85034
 H         17.83674       17.41139       20.36071
 O         14.85463       13.00201       19.50892
 H         14.79093       12.06268       19.68161
 H         14.73986       13.08023       18.56185
 O         17.43875       17.21983       12.21998
 H         17.15451       16.36026       11.90921
 H         18.00423       17.55213       11.52281
 O         17.82713       20.85132       15.23152
 H         18.70128       20.97239       14.86079
 H         17.77666       21.49162       15.94124
 O         14.14984       17.53539       12.77792
 H         13.65462       16.85651       13.23630
 H         14.63111       17.98964       13.46949
 O         13.84214       13.14546       16.67865
 H         13.75377       14.04457       16.36238
 H         12.99367       12.94570       17.07415
 O         13.88572       17.97262       20.63806
 H         13.20688       17.70698       20.01770
 H         14.53086       18.43605       20.10396
 O         16.06006       14.47751       21.42565
 H         15.91909       14.01774       20.59802
 H         16.89777       14.92627       21.31122
 O         12.53085       15.58810       13.77797
 H         13.27062       15.57356       14.38524
 H         11.82807       15.13620       14.24500
 O         11.66683       18.74922       16.30377
 H         12.62154       18.69710       16.34907
 H         11.39461       17.89002       15.98142
 O         15.93511       20.49056       18.85234
 H         16.39583       19.70371       18.56105
 H         15.64406       20.91153       18.04345
 O         20.62500       14.79055       17.79656
 H         20.31198       13.89434       17.67389
 H         20.76831       15.11835       16.90873
 O         16.08891       11.63149       15.72230
 H         15.47392       10.98495       15.37587
 H         15.53306       12.32211       16.08327
 O         14.36658       19.17158       16.33601
 H         15.00573       19.11243       15.62592
 H         14.28261       20.10985       16.50578
 O         16.12481       19.06394       14.38683
 H         16.64684       19.84736       14.55995
 H         16.52725       18.67404       13.61078
 O         19.06836       12.41392       17.55219
 H         18.51855       11.95705       16.91563
 H         18.84016       12.01888       18.39368
 O         19.66344       20.08129       17.51179
 H         19.32082       20.32556       16.65203
 H         20.61398       20.07759       17.39912
 O         15.97160       14.41451       12.61973
 H         15.36768       13.78237       12.22997
 H         16.66160       14.52232       11.96512
 
       20.38436       13.62573        4.73210       -0.834
       19.66292       14.25459        4.71525        0.417
       20.18335       13.01094        4.02651        0.417
       11.98398        4.80634       25.56617       -0.834
       11.35291        4.26670       25.08996        0.417
       11.92220        5.66805       25.15398        0.417
        9.58270       18.04808       28.70741       -0.834
        9.91754       18.76891       28.17401        0.417
        8.87401       17.67218       28.18521        0.417
       22.65427       29.40598       21.55093       -0.834
       22.83181       29.46827       20.61241        0.417
       22.40711       28.49150       21.68824        0.417
       19.77233        8.55920       19.98801       -0.834
       19.96060        7.77638       20.50568        0.417
       20.61228        9.01412       19.92670        0.417
       14.15056       16.64006       27.85382       -0.834
       13.39196       16.05636       27.84665        0.417
       14.62866       16.42208       27.05374        0.417
       22.37468       11.84498       16.97751       -0.834
       21.51427       12.13812       17.27750        0.417
       22.39424       10.90997       17.18151        0.417
       17.50971       16.47465       27.57970       -0.834
       17.73441       16.66027       26.66795        0.417
       17.47573       17.33475       27.99838        0.417
       23.38530        7.28333       19.26301       -0.834
       24.17478        7.21771       19.80027        0.417
       22.77696        6.65537       19.65265        0.417
       26.41773       26.07040       13.91523       -0.834
       26.75524       26.33907       13.06075        0.417
       26.23715       26.89243       14.37120        0.417
        7.92697        6.43541       11.49098       -0.834
        7.50943        5.96569       10.76900        0.417
        8.86405        6.37850       11.30424        0.417
        6.86958       15.53075        9.79014       -0.834
        7.80152       15.46673        9.99899        0.417
        6.66622       14.70790        9.34540        0.417
       16.48670        3.27246       20.37312       -0.834
       17.09896        2.95510       21.03694        0.417
       15.62346        3.16796       20.77329        0.417
       27.37807       12.73904       20.78798       -0.834
       26.51177       12.96120       21.12915        0.417
       27.20157       12.18993       20.02407        0.417
       11.76931       30.24772       18.98646       -0.834
       12.03724       30.37013       19.89720        0.417
       10.81410       30.30589       19.00743        0.417
       24.65763       26.54063       10.76793       -0.834
       25.37080       26.88999       10.23354        0.417
       24.72534       25.59113       10.66741        0.417
       11.41056       18.72884        8.90333       -0.834
       11.72335       19.63289        8.87035        0.417
       10.98439       18.65334        9.75709        0.417
        2.43857       13.50902       12.80141       -0.834
        2.53812       14.17417       12.12030        0.417
        2.02657       12.76889       12.35567        0.417
       12.02460       15.06715       27.33908       -0.834
       11.51957       14.99179       28.14870        0.417
       11.37252       15.26564       26.66705        0.417
       27.74412       17.13836       13.37302       -0.834
       28.20828       17.49818       14.12887        0.417
       27.83474       17.80772       12.69480        0.417
       11.41129       21.20723       14.97429       -0.834
       11.73824       21.20304       14.07467        0.417
       11.38297       20.28351       15.22364        0.417
        5.91146       24.33686       19.95061       -0.834
        5.92056       23.43909       19.61870        0.417
        5.93534       24.24097       20.90270        0.417
       15.25619       13.40800       26.00688       -0.834
       15.17628       12.87551       25.21549        0.417
       15.93869       14.04610       25.79889        0.417
       20.98103       31.06113       13.45128       -0.834
       21.22167       31.84499       13.94513        0.417
       20.10165       30.84335       13.76029        0.417
        9.09991       24.28085       11.76870       -0.834
       10.05091       24.17206       11.76764        0.417
        8.87238       24.39445       12.69149        0.417
       21.56912       22.25673       25.93885       -0.834
       21.43386       22.47211       26.86165        0.417
       22.33971       22.76434       25.68439        0.417
       12.60630       10.60473       29.87763       -0.834
       11.67410       10.50889       30.07274        0.417
       12.64585       11.31656       29.23891        0.417
        6.22684        9.27153       11.74100       -0.834
        5.83539        8.41630       11.56329        0.417
        7.05269        9.07064       12.18128        0.417
       22.27904       10.02974        9.85493       -0.834
       21.42313        9.66524       10.08030        0.417
       22.23252       10.18601        8.91172        0.417
        4.14428       12.37926       14.91436       -0.834
        3.66654       12.63261       14.12454        0.417
        4.51643       11.52251       14.70529        0.417
       24.82253        8.87328        6.83384       -0.834
       23.89798        8.96750        6.60461        0.417
       24.87177        9.14687        7.74979        0.417
       24.14756       18.93954       23.85431       -0.834
       25.06146       19.06263       23.59765        0.417
       24.09977       19.28600       24.74532        0.417
       20.36501       22.49106       20.13142       -0.834
       20.41710       22.96794       19.30311        0.417
       19.99409       21.64067       19.89585        0.417
       25.06889       14.48738       21.55602       -0.834
       25.14613       15.40972       21.80006        0.417
       25.16010       14.48280       20.60318        0.417
        6.27923       21.27797       26.21809       -0.834
        7.20244       21.52760       26.17827        0.417
        6.17163       20.89453       27.08851        0.417
       13.96994       15.31107       23.24260       -0.834
       13.57429       14.53491       23.63916        0.417
       14.78842       14.99451       22.86036        0.417
       19.06083       18.39457       10.38859       -0.834
       19.35915       19.27093       10.14520        0.417
       18.61528       18.06712        9.60725        0.417
       24.72020       12.38405        4.11531       -0.834
       25.35608       11.85606        4.59814        0.417
       23.94380       12.39592        4.67504        0.417
       11.56092       22.86150       17.07333       -0.834
       11.48414       22.40571       16.23512        0.417
       10.68723       23.21825       17.23342        0.417
       15.84380       27.69839       19.57805       -0.834
       16.08645       28.41423       20.16534        0.417
       15.45871       27.03668       20.15258        0.417
       19.39655       26.96654       20.83227       -0.834
       19.46238       27.52549       20.05801        0.417
       20.27690       26.60805       20.94501        0.417
        4.16113       23.94349       10.20670       -0.834
        4.10766       24.60017       10.90106        0.417
        5.07362       23.65463       10.21933        0.417
       10.00285        9.01791        7.84958       -0.834
       10.42439        8.73881        8.66237        0.417
        9.11662        8.66029        7.90378        0.417
       18.41972        6.42165       13.70970       -0.834
       18.03033        6.15682       14.54305        0.417
       17.89239        5.97669       13.04625        0.417
       29.64199       20.67723       14.26080       -0.834
       30.47308       20.22941       14.41901        0.417
       29.85681       21.36693       13.63279        0.417
       24.44015        4.60984       21.98261       -0.834
       24.26398        5.08641       22.79386        0.417
       24.82640        5.26326       21.39945        0.417
        7.73826       17.91612        8.69144       -0.834
        7.47774       17.07519        9.06720        0.417
        8.61979       18.06834        9.03196        0.417
       18.50814        5.15244        8.58665       -0.834
       17.98608        4.54580        9.11170        0.417
       17.93784        5.91034        8.45772        0.417
       13.14111       11.23318       14.56348       -0.834
       12.80338       11.19526       15.45832        0.417
       12.49874       11.75869       14.08659        0.417
       14.70180        5.85653       13.35783       -0.834
       13.80213        5.66076       13.09610        0.417
       14.91186        5.19003       14.01199        0.417
       10.17119       19.84069       12.67263       -0.834
        9.36218       20.29911       12.89974        0.417
        9.93436       18.91340       12.68923        0.417
       14.37369       12.86777        5.70020       -0.834
       13.93073       13.23314        6.46605        0.417
       13.95077       12.02063        5.55979        0.417
       23.35769       21.43962        3.28694       -0.834
       22.76933       22.09334        2.90917        0.417
       22.88665       21.10537        4.05024        0.417
       19.27290        9.10540        7.35747       -0.834
       19.28185        8.51402        8.11008        0.417
       18.39237        9.48077        7.35768        0.417
       21.94673       26.72450       22.12421       -0.834
       22.05900       25.77393       22.11774        0.417
       21.71494       26.93263       23.02933        0.417
       17.36082       28.45056        7.73141       -0.834
       16.78654       27.95575        8.31588        0.417
       16.90191       28.45520        6.89140        0.417
       10.11419        8.32372       25.95091       -0.834
        9.21455        8.03363       26.10165        0.417
       10.61517        7.93436       26.66760        0.417
       20.99588        5.20985        9.68230       -0.834
       21.24104        6.09213        9.96116        0.417
       20.21483        5.33678        9.14370        0.417
       22.04354        9.99765        7.18422       -0.834
       22.15689       10.78158        6.64678        0.417
       21.12143        9.76436        7.07689        0.417
       27.10428        5.53937       13.46135       -0.834
       27.54151        4.98826       14.11048        0.417
       26.99030        6.38247       13.90000        0.417
        3.29211       15.67100       17.38156       -0.834
        3.16987       14.87947       17.90575        0.417
        3.01988       15.41890       16.49920        0.417
       11.91007        5.69723       12.62335       -0.834
       11.13321        5.23932       12.94435        0.417
       11.57125        6.32931       11.98939        0.417
        5.76519        7.25180       17.46421       -0.834
        6.35422        6.54127       17.21038        0.417
        6.23341        7.71515       18.15870        0.417
       18.58313       20.16931       20.17513       -0.834
       17.63337       20.11941       20.06690        0.417
       18.93097       20.07576       19.28829        0.417
       22.21157       20.15653        5.71215       -0.834
       22.30139       19.48870        6.39197        0.417
       21.32134       20.49115        5.82058        0.417
       15.31848       25.35742       21.26091       -0.834
       15.46041       24.41204       21.30935        0.417
       15.98227       25.72980       21.84139        0.417
        5.21980       14.91142        6.55687       -0.834
        6.07167       15.28877        6.77633        0.417
        5.42616       14.05635        6.17938        0.417
       18.91436        8.71198       17.12026       -0.834
       18.18146        8.22778       17.50058        0.417
       19.51760        8.84731       17.85103        0.417
       23.13974        5.57943       16.58301       -0.834
       23.50120        4.74205       16.29248        0.417
       22.20865        5.52668       16.36729        0.417
        9.23458       23.33358       14.38254       -0.834
        9.66059       22.47651       14.36884        0.417
        9.59110       23.76640       15.15829        0.417
       14.10040        7.40380       16.16431       -0.834
       13.80060        7.29124       15.26226        0.417
       13.70196        8.22633       16.44876        0.417
       12.21495       21.70772        7.10408       -0.834
       12.41166       22.63383        6.96316        0.417
       11.26801       21.64204        6.98072        0.417
       25.17542       18.64982       13.43053       -0.834
       25.92761       19.03859       12.98411        0.417
       25.47978       17.78463       13.70448        0.417
       10.77258        6.92495       10.32261       -0.834
       11.59152        7.40668       10.43881        0.417
       11.01142        6.17273        9.78099        0.417
       18.19260       24.02340       21.19440       -0.834
       19.05833       23.61917       21.13649        0.417
       17.89952       24.09414       20.28593        0.417
       12.69227        6.05243       22.29521       -0.834
       13.07825        5.19395       22.46921        0.417
       11.76636        5.94813       22.51442        0.417
       19.29958       22.99162       11.27445       -0.834
       19.07658       22.96473       12.20493        0.417
       20.08447       23.53782       11.23147        0.417
        9.36095       21.60462        6.86602       -0.834
        9.43023       21.67341        7.81823        0.417
        8.64698       20.98364        6.72158        0.417
       13.82648        1.97639       21.13414       -0.834
       13.96104        2.28479       22.03025        0.417
       13.62509        2.76825       20.63551        0.417
        5.61260       14.38968       24.93781       -0.834
        6.25937       13.78303       24.57739        0.417
        6.12825       15.13468       25.24654        0.417
       13.96671        9.70128       27.51159       -0.834
       13.86496        9.53799       28.44925        0.417
       13.76703       10.63155       27.40694        0.417
       18.43252       15.53992        4.26674       -0.834
       17.55088       15.89449        4.38171        0.417
       18.59715       15.60642        3.32615        0.417
       23.84141       11.24605       24.69606       -0.834
       23.08127       11.80930       24.84157        0.417
       23.61613       10.73501       23.91868        0.417
        6.75656       14.80255       21.83970       -0.834
        7.03871       14.12330       22.45231        0.417
        7.26341       15.57553       22.08836        0.417
        7.29061       17.70189       22.12542       -0.834
        7.81673       18.24421       21.53777        0.417
        7.19264       18.23108       22.91702        0.417
       24.84324       23.70164       21.17188       -0.834
       25.19905       24.51491       20.81381        0.417
       24.01206       23.58070       20.71281        0.417
       10.94909       18.54632       19.01325       -0.834
       11.45417       19.29663       19.32654        0.417
       11.19299       18.46079       18.09161        0.417
       14.30524       10.02294        9.04878       -0.834
       13.51943       10.22776        8.54204        0.417
       14.92206        9.67487        8.40488        0.417
       22.88810       10.79163       14.52190       -0.834
       22.92806        9.89914       14.86555        0.417
       22.88116       11.34848       15.30042        0.417
       12.12435       18.01952       30.03353       -0.834
       11.31281       17.79103       29.58030        0.417
       12.78626       18.04460       29.34253        0.417
       29.01656       20.03746       23.40430       -0.834
       28.24892       20.60382       23.32561        0.417
       29.36550       19.98123       22.51474        0.417
       13.30870        8.07790       25.39043       -0.834
       13.63462        8.63476       26.09747        0.417
       13.02858        8.69158       24.71133        0.417
        9.81489       17.87585       25.68018       -0.834
        9.46243       18.60381       25.16825        0.417
       10.68422       18.17138       25.95064        0.417
       18.02340        8.97847       11.87448       -0.834
       18.29573        8.46144       12.63260        0.417
       17.37981        9.59521       12.22327        0.417
        7.29630        9.54494       24.63877       -0.834
        8.06484        9.53676       25.20931        0.417
        6.55127        9.52698       25.23948        0.417
       10.95162        7.62569       14.87282       -0.834
       10.98891        7.57219       15.82779        0.417
       10.31048        6.96138       14.62010        0.417
       16.20640       22.81738       22.69948       -0.834
       16.92237       23.41182       22.47530        0.417
       16.62510       22.11345       23.19486        0.417
        8.21800       15.63068       12.61298       -0.834
        8.24268       14.73019       12.93659        0.417
        7.41535       15.99713       12.98404        0.417
       10.10221       30.03134       14.55457       -0.834
       10.99446       29.78453       14.79788        0.417
        9.54429       29.53752       15.15549        0.417
       21.92825       19.04859       16.35561       -0.834
       22.60029       19.62285       15.98842        0.417
       22.30006       18.16927       16.28651        0.417
       23.81399        7.22688       24.86238       -0.834
       24.55973        7.82521       24.81627        0.417
       24.20260        6.35409       24.80368        0.417
       27.78038       16.02608       24.99863       -0.834
       27.25766       15.22422       25.00035        0.417
       27.54415       16.46830       25.81403        0.417
       14.21316       10.11181        3.00146       -0.834
       14.19617       10.06238        2.04569        0.417
       13.57399       10.79062        3.21806        0.417
       17.47438       12.51801        2.32184       -0.834
       17.27129       12.54940        3.25672        0.417
       18.35280       12.89224        2.25439        0.417
       13.53863        7.56524       10.68433       -0.834
       13.43860        7.98258       11.53993        0.417
       13.73663        8.28660       10.08712        0.417
        9.71309       26.99853       11.89691       -0.834
        9.37413       27.06129       12.78988        0.417
        9.37744       26.16347       11.57094        0.417
       25.89434       15.79388        9.23744       -0.834
       26.19903       15.29535        9.99564        0.417
       26.64023       15.79818        8.63755        0.417
       22.27207       26.95642        7.62661       -0.834
       22.60970       26.80131        6.74447        0.417
       22.50582       26.16722        8.11525        0.417
       12.47536        8.98172       12.77798       -0.834
       11.94553        8.65923       13.50703        0.417
       12.92189        9.75249       13.12835        0.417
       24.01977       20.41867       15.15239       -0.834
       23.55457       21.09903       14.66563        0.417
       24.33514       19.81530       14.47954        0.417
        5.55010       16.06420       12.16339       -0.834
        4.69827       15.73257       11.87942        0.417
        6.12999       15.90508       11.41865        0.417
        7.00737       21.16058       21.89783       -0.834
        7.40672       20.64192       21.19944        0.417
        6.06569       21.03277       21.78320        0.417
       23.25972       23.88354        7.34385       -0.834
       23.33486       24.39823        6.54030        0.417
       23.50059       22.99466        7.08290        0.417
       26.14630       22.12723       24.78467       -0.834
       26.09831       21.83964       23.87295        0.417
       26.14744       21.31585       25.29250        0.417
       24.42615       21.37915        7.05886       -0.834
       23.76306       20.94708        6.52047        0.417
       25.21283       21.38301        6.51356        0.417
       23.22315       15.95935       27.78881       -0.834
       23.34103       15.08014       28.14846        0.417
       23.49107       16.54590       28.49621        0.417
        7.98168       19.85762       15.00047       -0.834
        8.49987       19.27645       15.55721        0.417
        7.64273       19.28863       14.30939        0.417
       15.40828       10.18868       19.49947       -0.834
       16.26485       10.49414       19.20077        0.417
       15.53879        9.97385       20.42307        0.417
       15.28012       20.48927        7.89893       -0.834
       14.33364       20.62830        7.93182        0.417
       15.58128       20.67692        8.78793        0.417
       19.69334       11.79564       23.70789       -0.834
       20.13495       11.69612       24.55128        0.417
       18.77895       11.57775       23.88858        0.417
       19.92826       23.68170       14.61248       -0.834
       18.99748       23.86246       14.48135        0.417
       20.09581       23.93258       15.52089        0.417
       10.10052       26.94956       26.54733       -0.834
       10.87318       27.10959       27.08919        0.417
       10.40818       26.36010       25.85877        0.417
        9.61075       17.25531       11.07862       -0.834
       10.53948       17.02995       11.13255        0.417
        9.17323       16.60231       11.62489        0.417
        7.95852       10.55278        9.76954       -0.834
        7.52504        9.90467       10.32478        0.417
        8.40299       10.03492        9.09834        0.417
       26.07096        4.48353       17.76684       -0.834
       26.37458        4.15030       18.61123        0.417
       25.16106        4.73699       17.92199        0.417
        7.41585       19.85606        6.80321       -0.834
        7.56764       19.07733        7.33871        0.417
        6.46687       19.97968        6.82299        0.417
       11.48722       20.11360       27.78753       -0.834
       11.79753       20.97706       28.06026        0.417
       12.07928       19.85824       27.08007        0.417
       22.97606        9.16649       17.50654       -0.834
       22.83492        8.51385       18.19237        0.417
       23.63507        8.77413       16.93383        0.417
       15.97958       17.90067       22.71544       -0.834
       16.11236       18.73509       23.16526        0.417
       15.06993       17.92995       22.41895        0.417
        2.93734       15.78315       11.22744       -0.834
        3.03999       15.53757       10.30799        0.417
        2.30979       16.50581       11.21420        0.417
       14.59375        6.24573       20.01195       -0.834
       14.23195        6.94258       20.55942        0.417
       13.85185        5.66581       19.84022        0.417
       23.54069       28.08533       12.85169       -0.834
       22.75997       28.58676       12.61658        0.417
       23.71436       27.53840       12.08558        0.417
       26.34546        8.13801       18.36751       -0.834
       27.16824        7.96489       17.91002        0.417
       25.66581        7.87694       17.74610        0.417
       12.85032       12.37346       27.58451       -0.834
       12.17400       13.04019       27.46490        0.417
       13.65409       12.78800       27.27090        0.417
        8.30267       11.62048       15.51215       -0.834
        7.74874       11.93650       16.22597        0.417
        8.35071       10.67399       15.64665        0.417
       16.69091        9.70254        7.08179       -0.834
       16.79098       10.63943        7.25047        0.417
       16.48473        9.64737        6.14869        0.417
       12.98064       25.67776        5.59002       -0.834
       13.15062       24.74150        5.69377        0.417
       12.13174       25.72021        5.14979        0.417
       14.10506       21.56076       26.95212       -0.834
       14.51478       21.07039       27.66479        0.417
       14.81704       22.07915       26.57717        0.417
        9.55439       15.26394       25.67286       -0.834
        8.95522       15.30014       26.41846        0.417
        9.73666       16.18074       25.46673        0.417
       25.52422       10.48994       21.96954       -0.834
       25.26143       10.64528       21.06232        0.417
       24.83075        9.93657       22.32886        0.417
       21.24919       18.85848       11.93778       -0.834
       20.36229       18.93945       11.58696        0.417
       21.81439       18.86539       11.16529        0.417
       23.42122       11.04840       27.54562       -0.834
       23.86528       10.74096       26.75535        0.417
       23.45393       10.30266       28.14480        0.417
        4.63248       20.12495        9.42550       -0.834
        4.43980       19.26095        9.06134        0.417
        4.08003       20.72512        8.92468        0.417
       21.88664       23.49446       11.24761       -0.834
       22.72084       23.95247       11.14480        0.417
       21.96125       22.72909       10.67763        0.417
       16.19404       27.01915       11.59454       -0.834
       15.95460       26.80643       10.69252        0.417
       17.03497       26.58214       11.72904        0.417
       19.38756       29.24686       15.10410       -0.834
       18.62855       29.83007       15.10678        0.417
       19.03893       28.40055       14.82402        0.417
       14.05508       23.43906        8.93915       -0.834
       14.61004       23.69763        8.20335        0.417
       13.16121       23.57548        8.62511        0.417
       11.68661       11.72855       17.97384       -0.834
       10.96725       12.33724       17.80572        0.417
       11.42896       11.26709       18.77191        0.417
        7.94232       11.19042       20.41500       -0.834
        7.54400       10.83800       19.61915        0.417
        8.45976       11.93731       20.11393        0.417
       20.56445       11.81455       13.28802       -0.834
       21.40991       11.76478       13.73407        0.417
       19.92890       11.53354       13.94631        0.417