%Nproc=32
%Mem=120Gb
%chk=temp.chk
#p cam-b3lyp/6-31+G(d,p) nosymm charge Freq 

Calculation for S0 with freq for abs spect

0  1
 C         15.67001       17.52951       16.07990
 C         17.29263       15.73382       15.50664
 C         17.69386       15.59301       16.75284
 C         17.02629       16.30618       17.76575
 N         16.02668       17.20797       17.42578
 H         17.67125       15.12497       14.63812
 H         18.45954       14.96849       17.03646
 O         17.17321       16.07324       18.97937
 O         14.84122       18.33227       15.79511
 N         16.36929       16.69331       15.18925
 H         15.95504       16.77448       14.32139
 H         15.50575       17.72944       18.15479
 O         16.25057       19.00300       13.12393
 H         15.41723       18.68245       13.46893
 H         16.60281       18.26632       12.62446
 O         16.55093       14.31667       11.88241
 H         15.61462       14.25758       11.69248
 H         16.67480       13.76318       12.65347
 O         20.69756       17.69188       19.30827
 H         20.56450       17.85069       18.37376
 H         19.86282       17.92771       19.71302
 O         19.69414       16.37175       14.82477
 H         19.18455       15.64717       15.18744
 H         19.84812       16.12415       13.91306
 O         17.98940       18.15031       20.49043
 H         18.28038       17.58397       21.20514
 H         17.17582       18.54074       20.80963
 O         18.87135       21.75372       15.35079
 H         18.86066       20.86454       15.70502
 H         18.51194       22.29607       16.05286
 O         19.17240       13.88991       15.56567
 H         18.69707       13.06554       15.66915
 H         19.59207       14.03307       16.41398
 O         14.36303       20.15195       17.48904
 H         15.27653       20.32113       17.71955
 H         14.29101       20.42797       16.57533
 O         16.55825       20.17169       19.19420
 H         17.34335       19.74672       19.53954
 H         15.84546       19.83832       19.73920
 O         21.10178       18.39279       13.51401
 H         20.65026       17.83574       14.14808
 H         20.80859       18.07202       12.66114
 O         13.13668       15.79754       13.70813
 H         13.01777       15.08392       14.33490
 H         12.83796       15.43624       12.87359
 O         19.27336       14.77391       19.87314
 H         19.38428       15.61521       20.31602
 H         18.32794       14.69123       19.74830
 O         16.68767       12.39563       13.95113
 H         17.36614       11.86356       14.36683
 H         15.87355       12.11669       14.37024
 O         12.56573       14.09594       16.01078
 H         11.65194       13.86217       15.84780
 H         12.65716       14.05747       16.96282
 O         20.41398       18.21388       16.58261
 H         20.25239       17.40493       16.09709
 H         19.59551       18.70488       16.51006
 O         12.15837       17.38354       17.31940
 H         11.53341       17.83014       16.74826
 H         12.99969       17.79586       17.12340
 O         12.45017       18.39918       13.75151
 H         12.44295       18.42813       12.79478
 H         12.64251       17.48555       13.96251
 
       30.11846       22.02450       14.16635       -0.834
       31.00816       21.77936       13.91224        0.417
       29.55441       21.44345       13.65599        0.417
       11.96204       10.94150       24.80452       -0.834
       11.27076       10.80380       25.45213        0.417
       12.77196       10.94307       25.31469        0.417
       17.05618       21.59505       12.91510       -0.834
       17.56948       21.74087       13.70976        0.417
       16.78188       20.67971       12.97117        0.417
       18.87169        8.21027        8.12910       -0.834
       19.54321        8.58434        8.69950        0.417
       18.52787        8.95821        7.64064        0.417
        9.47984       24.38642        8.32377       -0.834
        8.53051       24.29407        8.40415        0.417
        9.74483       24.84414        9.12159        0.417
       23.43735       23.25226       26.12673       -0.834
       23.86046       23.92780       26.65669        0.417
       22.70521       22.94941       26.66385        0.417
       26.42765       21.44591       17.10497       -0.834
       26.99851       21.11497       17.79839        0.417
       26.78656       22.30659       16.88899        0.417
       15.74547       24.87270       18.26319       -0.834
       15.39436       24.88699       17.37283        0.417
       14.97148       24.85728       18.82617        0.417
       27.05850       14.32592       17.94848       -0.834
       27.33597       14.67251       18.79649        0.417
       26.60884       13.50760       18.15918        0.417
       14.68963       25.23609       15.72626       -0.834
       13.73451       25.27504       15.67654        0.417
       14.98350       25.40120       14.83037        0.417
       29.72013       11.77548       13.21467       -0.834
       29.23092       12.37663       13.77639        0.417
       30.05709       11.10856       13.81292        0.417
       18.30152       21.15057        4.82586       -0.834
       18.32633       22.10349        4.91286        0.417
       17.50532       20.97605        4.32402        0.417
       15.39169       31.78394       19.81976       -0.834
       15.73861       30.93277       19.55256        0.417
       15.88176       32.41792       19.29618        0.417
       27.82173       23.77992       16.61451       -0.834
       27.13104       24.44253       16.62605        0.417
       28.55813       24.20844       16.17825        0.417
       19.17617       16.43639        5.52914       -0.834
       18.72360       17.06428        6.09231        0.417
       18.58645       15.68363        5.48660        0.417
       23.15666       11.56573       24.77580       -0.834
       23.09269       12.17461       25.51160        0.417
       22.43005       11.80658       24.20112        0.417
       25.83807       28.22470       18.16144       -0.834
       25.91761       28.40646       19.09786        0.417
       25.28977       27.44149       18.11473        0.417
       22.82428        7.61039       22.36015       -0.834
       23.57195        7.02278       22.46938        0.417
       22.08393        7.02781       22.19073        0.417
       15.50151       26.25325       13.05529       -0.834
       16.06573       25.59896       12.64324        0.417
       16.10817       26.86283       13.47553        0.417
       22.37821       22.33012       23.80193       -0.834
       21.96223       21.53094       24.12521        0.417
       22.77041       22.72786       24.57925        0.417
        5.53245       15.91343       17.11255       -0.834
        5.91026       16.71638       16.75373        0.417
        6.12455       15.21933       16.82296        0.417
       17.81555       23.93793       26.00445       -0.834
       17.19160       24.42406       26.54351        0.417
       17.46709       23.04678       25.97861        0.417
        2.52587       20.10521       11.42687       -0.834
        2.67342       20.65494       12.19646        0.417
        3.39627       19.78465       11.19049        0.417
       14.42230       19.72870       10.24085       -0.834
       15.13140       19.74290       10.88367        0.417
       14.44232       20.59870        9.84219        0.417
       25.72775       13.67029       15.31472       -0.834
       26.57884       13.49723       14.91232        0.417
       25.61591       12.96517       15.95232        0.417
       21.17588        7.74675       19.67817       -0.834
       22.11889        7.86361       19.56284        0.417
       21.09839        7.06529       20.34589        0.417
       25.27252       25.06925       23.43563       -0.834
       25.67817       24.64907       22.67726        0.417
       24.68460       24.40367       23.79283        0.417
       26.52746       23.67910       10.10949       -0.834
       27.11042       23.24359       10.73137        0.417
       26.64298       24.61282       10.28571        0.417
       26.75651       21.29647       25.75696       -0.834
       26.86564       21.85238       24.98542        0.417
       27.60795       20.87423       25.87090        0.417
        6.24836       13.20151       24.09304       -0.834
        6.16658       13.58165       23.21837        0.417
        6.57966       13.91706       24.63568        0.417
       22.14285       22.56727       18.03112       -0.834
       21.63136       23.04908       17.38115        0.417
       21.62864       22.63041       18.83600        0.417
       22.61740       19.28684       26.23092       -0.834
       22.03339       20.01271       26.01119        0.417
       22.20699       18.86943       26.98826        0.417
       14.57257       20.10390       29.11867       -0.834
       14.86618       20.59313       29.88723        0.417
       15.37608       19.91119       28.63549        0.417
       22.63326       22.60553        9.26828       -0.834
       22.76857       21.76309        8.83443        0.417
       23.00422       23.24883        8.66430        0.417
       10.64235        7.06319       26.27042       -0.834
        9.94128        6.82889       26.87856        0.417
       10.55666        6.43612       25.55232        0.417
       22.16738       19.18780       10.61449       -0.834
       21.87552       19.91628       11.16255        0.417
       21.36631       18.70549       10.40984        0.417
        3.94871        9.67514       21.03582       -0.834
        3.98762        8.72116       20.96759        0.417
        4.40827        9.99034       20.25757        0.417
       19.86134       24.45851       27.55590       -0.834
       19.92789       25.33755       27.92885        0.417
       19.15343       24.52277       26.91484        0.417
       10.76535       22.16450        6.96447       -0.834
       10.25305       22.85852        7.37934        0.417
       10.17345       21.41272        6.93749        0.417
        4.30183       21.99396       19.23844       -0.834
        4.11172       21.05607       19.21740        0.417
        4.35097       22.20802       20.17011        0.417
       16.85372       11.47725        9.86595       -0.834
       17.48973       11.11336       10.48183        0.417
       16.02557       11.47348       10.34596        0.417
       12.44647       14.08234        3.18050       -0.834
       12.24468       14.29068        4.09269        0.417
       13.40234       14.04274        3.14916        0.417
       27.45580       23.56055       12.95205       -0.834
       28.02315       23.03034       13.51172        0.417
       26.66730       23.70285       13.47574        0.417
       11.35712       17.09650        3.55467       -0.834
       12.28284       16.86107        3.61668        0.417
       11.29573       17.62050        2.75599        0.417
       10.94235       28.47899        9.98865       -0.834
       10.98769       29.00580       10.78655        0.417
       10.01564       28.48555        9.74907        0.417
       23.34049       18.11407       17.39372       -0.834
       23.41427       17.17255       17.23779        0.417
       22.52282       18.36514       16.96403        0.417
       20.70295       14.38200        4.34504       -0.834
       19.88941       14.88000        4.42491        0.417
       20.45514       13.59325        3.86266        0.417
       13.35892        4.41565       13.93047       -0.834
       13.77461        4.43792       14.79241        0.417
       14.08196        4.27642       13.31886        0.417
       20.83486       15.87226       29.49505       -0.834
       20.33705       15.16705       29.08141        0.417
       20.91581       15.60400       30.41032        0.417
       18.38923        9.61499        3.29621       -0.834
       18.25947        9.58434        2.34833        0.417
       17.53922        9.88170        3.64631        0.417
       20.82602       12.63882       13.81710       -0.834
       21.49277       12.40724       14.46367        0.417
       20.05909       12.87699       14.33798        0.417
       21.88211       15.27089       23.77279       -0.834
       21.75831       15.27963       24.72191        0.417
       22.55891       15.92864       23.61298        0.417
       22.95709       17.63663        5.41896       -0.834
       22.26996       18.25202        5.16325        0.417
       22.54633       17.07940        6.08002        0.417
        1.62008       19.81600       14.54489       -0.834
        1.71333       20.13643       15.44203        0.417
        2.24888       19.09721       14.48020        0.417
       29.29070       15.61286        8.93570       -0.834
       28.43943       16.03977        9.03229        0.417
       29.89560       16.17018        9.42531        0.417
       24.81326       25.80300       16.05872       -0.834
       24.57511       25.28711       16.82903        0.417
       24.91486       25.15728       15.35947        0.417
       11.81949       21.44483       25.95192       -0.834
       11.25250       21.96891       25.38615        0.417
       12.67593       21.86803       25.89168        0.417
        4.71348       18.92355       21.71002       -0.834
        4.01303       19.45275       22.09153        0.417
        5.41342       19.54960       21.52459        0.417
       30.23816       21.06330       22.59628       -0.834
       30.28436       21.62358       21.82156        0.417
       29.38369       20.63654       22.53320        0.417
       11.57764       17.37514       19.86109       -0.834
       10.78677       16.89780       20.11188        0.417
       11.66224       17.22180       18.92005        0.417
        6.72008       26.15197       10.81313       -0.834
        7.18401       26.87212       10.38606        0.417
        5.96097       26.56568       11.22402        0.417
       13.19367       11.32086        2.13026       -0.834
       12.95255       11.59115        3.01628        0.417
       12.86550       12.02232        1.56769        0.417
       16.50878        5.37245       26.41579       -0.834
       17.18408        4.70277       26.52424        0.417
       16.59386        5.92687       27.19142        0.417
       17.85548       25.95251       19.44321       -0.834
       17.80504       26.70546       18.85435        0.417
       17.10044       25.41311       19.20826        0.417
        8.92295       12.53117        3.99801       -0.834
        9.18261       11.60988        4.00297        0.417
        9.17470       12.85612        4.86246        0.417
       22.71236        6.05092       12.10787       -0.834
       23.04328        6.13419       11.21356        0.417
       23.48476        6.16646       12.66130        0.417
        2.15344       14.75084       14.70052       -0.834
        2.41474       14.83245       15.61774        0.417
        1.48119       15.42183       14.58188        0.417
       10.17562       25.94609       10.53569       -0.834
       10.41347       26.87325       10.53076        0.417
        9.84976       25.78664       11.42148        0.417
        6.61139       24.59747       21.79519       -0.834
        7.41167       24.08807       21.66755        0.417
        6.31585       24.80616       20.90900        0.417
       13.36590       19.25408       20.22301       -0.834
       12.67046       18.62038       20.04687        0.417
       13.44797       19.75250       19.40995        0.417
       20.41103       12.02945        2.65525       -0.834
       20.18945       11.44462        1.93061        0.417
       20.04719       11.60047        3.42974        0.417
        7.48627        6.23989       13.36385       -0.834
        7.92119        6.60041       12.59113        0.417
        6.58603        6.55953       13.30358        0.417
       17.47062        3.43295       24.02844       -0.834
       16.79766        3.50113       23.35115        0.417
       17.09387        2.84453       24.68270        0.417
       19.60060       24.84614        7.87175       -0.834
       20.49066       24.64540        7.58239        0.417
       19.40055       25.68936        7.46531        0.417
        9.08070        8.70085        7.29219       -0.834
        8.80402        8.14917        6.56053        0.417
       10.00936        8.49924        7.40699        0.417
        8.04382       21.97977       11.30093       -0.834
        7.43475       22.62942       11.65196        0.417
        7.49563       21.22168       11.09838        0.417
       12.39178       28.53245       15.78653       -0.834
       13.24398       28.62776       16.21185        0.417
       12.51796       28.89916       14.91142        0.417
       13.15703       22.20139       20.89810       -0.834
       12.93846       21.37304       21.32506        0.417
       12.78224       22.12533       20.02062        0.417
       14.40218       11.99419       27.28638       -0.834
       13.53667       12.35305       27.09058        0.417
       14.45303       11.99824       28.24222        0.417
       24.31019       13.42434       21.24306       -0.834
       24.35799       12.47979       21.39057        0.417
       24.15284       13.51278       20.30303        0.417
        9.09680       23.16178       21.31847       -0.834
        8.79833       22.74828       20.50843        0.417
        9.57916       23.93622       21.02898        0.417
       30.60724       18.96360       12.22523       -0.834
       31.21145       19.70535       12.19383        0.417
       29.75394       19.35673       12.40841        0.417
       21.06174       10.71481       18.67744       -0.834
       21.38974       11.21963       19.42162        0.417
       21.06343        9.80779       18.98329        0.417
       13.82062       20.56651       14.89031       -0.834
       13.19986       19.87624       14.65701        0.417
       13.99538       21.02072       14.06607        0.417
       29.72983       16.44115       12.80318       -0.834
       28.80044       16.56302       12.99712        0.417
       30.00125       17.26623       12.40092        0.417
       20.07047       29.22323       13.16196       -0.834
       20.11859       28.37333       12.72426        0.417
       20.92187       29.62761       12.99517        0.417
       21.57132       27.67967       20.62655       -0.834
       20.84261       27.11203       20.87753        0.417
       22.32406       27.32829       21.10211        0.417
       10.87597       14.45705       18.89809       -0.834
       11.11844       13.63711       18.46783        0.417
       11.68073       14.75131       19.32473        0.417
       17.80815       20.29104        9.21362       -0.834
       17.86570       21.23037        9.38850        0.417
       18.23697       19.88043        9.96446        0.417
       17.36613       24.44943       12.35244       -0.834
       17.08109       23.55541       12.54142        0.417
       17.49850       24.46380       11.40454        0.417
       18.64633        2.18932       15.80878       -0.834
       19.42558        2.46734       16.29013        0.417
       18.96622        1.52695       15.19626        0.417
       23.28215       25.08393       21.09002       -0.834
       23.87989       24.89235       21.81269        0.417
       22.40956       24.93643       21.45479        0.417
       12.33492       14.88662       24.76229       -0.834
       11.68278       15.56657       24.59317        0.417
       11.90613       14.07217       24.49956        0.417
       17.63170       12.64177       20.96906       -0.834
       18.38958       13.05313       20.55356        0.417
       17.86877       12.58129       21.89446        0.417
        3.14170       21.86887       13.40717       -0.834
        2.83899       21.33456       14.14141        0.417
        2.94898       22.76893       13.66983        0.417
       24.08770       13.93341        7.63802       -0.834
       23.55122       14.68521        7.38660        0.417
       24.71237       14.28563        8.27202        0.417
       11.11921       15.88014        5.90999       -0.834
       10.95630       16.30485        5.06778        0.417
       11.96119       16.23294        6.19779        0.417
        7.87454       14.21409       16.91479       -0.834
        7.69560       13.71904       16.11533        0.417
        8.51814       14.87165       16.65089        0.417
        7.43139       13.16714       19.47825       -0.834
        7.81558       13.53255       18.68132        0.417
        6.50639       13.40882       19.43138        0.417
       15.62451       18.46024       25.28282       -0.834
       14.69665       18.47770       25.51734        0.417
       16.02359       17.87419       25.92586        0.417
       30.97798       16.73613       15.54995       -0.834
       30.82995       16.67432       14.60629        0.417
       30.12070       16.95809       15.91332        0.417
        6.00886        7.40799       19.02634       -0.834
        6.40837        7.40889       19.89618        0.417
        6.61300        7.91533       18.48426        0.417
       25.61307       20.55049       11.61199       -0.834
       25.19491       20.15755       12.37813        0.417
       24.97182       21.18199       11.28606        0.417
       19.20018       13.61366       10.66544       -0.834
       19.64667       14.26336       11.20837        0.417
       18.26926       13.75831       10.83481        0.417
        4.96756       14.67596        9.45260       -0.834
        5.42613       14.99792        8.67653        0.417
        5.16379       13.73939        9.47600        0.417
       27.38766       15.51183       26.07710       -0.834
       27.71363       16.33594       25.71541        0.417
       28.10117       15.19357       26.63013        0.417
        3.53220       17.88072       13.62840       -0.834
        3.91298       17.10455       13.21757        0.417
        3.69259       18.58677       13.00231        0.417
       17.62816       21.08999       31.09151       -0.834
       18.12782       21.16071       30.27814        0.417
       18.26620       21.27123       31.78165        0.417
       13.35250       30.96810       14.86319       -0.834
       12.79050       31.72132       14.68141        0.417
       13.24682       30.81069       15.80142        0.417
       22.56274       15.68295       19.51405       -0.834
       21.98292       16.43706       19.62061        0.417
       22.08474       15.09319       18.93102        0.417
       20.33350       30.34467       20.73544       -0.834
       19.66473       30.30370       21.41903        0.417
       20.65495       29.44622       20.66002        0.417
       19.21137       29.27399       17.58936       -0.834
       19.87867       28.58790       17.60430        0.417
       19.62239       29.99830       17.11748        0.417
       19.03374       11.07777       11.74783       -0.834
       19.56560       10.91789       12.52744        0.417
       19.30181       11.94653       11.44846        0.417
       16.26530       21.05603        2.42329       -0.834
       16.91479       20.61180        1.87824        0.417
       15.97235       21.79651        1.89216        0.417
       11.37222       17.61036       24.44851       -0.834
       11.99998       18.13975       24.94034        0.417
       11.07114       18.18633       23.74578        0.417
       17.72326       25.51632       23.80717       -0.834
       18.07068       24.76691       24.29083        0.417
       17.93666       26.27361       24.35232        0.417
       14.11721       11.87328       15.37985       -0.834
       13.46665       12.53807       15.60583        0.417
       13.87229       11.11016       15.90319        0.417
        5.34312       11.74766       26.17454       -0.834
        5.30736       10.87691       25.77863        0.417
        5.57214       12.33103       25.45103        0.417
       23.97210       20.21923       22.71696       -0.834
       23.70944       21.08376       23.03291        0.417
       24.69544       20.39338       22.11473        0.417
        6.14657       17.61994        6.57967       -0.834
        5.78376       18.05875        7.34912        0.417
        5.41199       17.56006        5.96890        0.417
       14.02872       24.86489       20.70814       -0.834
       13.67614       24.05003       21.06579        0.417
       14.34899       25.34374       21.47258        0.417
       21.74896       20.91994       12.61084       -0.834
       21.81432       21.59491       13.28640        0.417
       21.63589       20.10347       13.09750        0.417
       10.33939       20.22739       23.56283       -0.834
       10.06000       20.21118       22.64746        0.417
       10.96323       20.95180       23.61055        0.417
       11.74921        6.23235       22.79663       -0.834
       12.17107        5.44066       22.46274        0.417
       11.07605        5.91086       23.39641        0.417
       16.05761       18.72112        4.42647       -0.834
       16.79288       18.21940        4.07446        0.417
       15.80891       19.31277        3.71630        0.417
       25.94179       21.64727        6.26891       -0.834
       26.43159       20.95616        6.71465        0.417
       26.33559       21.69697        5.39789        0.417
        6.60556       18.65445       16.85435       -0.834
        6.12340       18.90627       17.64197        0.417
        7.46585       19.06076       16.95944        0.417
       11.61668       14.37734       11.75709       -0.834
       11.32422       14.72199       10.91334        0.417
       10.84510       13.94127       12.11867        0.417
       11.26567       12.78336       26.98838       -0.834
       11.38142       12.82122       27.93780        0.417
       10.31758       12.74088       26.86371        0.417
       25.06314       23.76839        7.89942       -0.834
       25.64998       23.72535        8.65440        0.417
       25.28145       22.99371        7.38130        0.417
       20.86001        5.51920       14.18317       -0.834
       21.12796        5.73596       13.29017        0.417
       21.35022        6.12832       14.73535        0.417
       25.19696       18.20042       29.38063       -0.834
       24.84921       17.57175       28.74811        0.417
       25.18801       19.03760       28.91664        0.417
        7.60544       27.61876       23.68018       -0.834
        8.10197       26.93529       23.23012        0.417
        6.71453       27.27276       23.73313        0.417
        6.03852       22.33266       17.10947       -0.834
        5.33543       22.13195       17.72721        0.417
        5.64493       22.20110       16.24690        0.417
       13.53118        8.71110       12.60252       -0.834
       12.63935        8.66458       12.94706        0.417
       13.99613        7.99991       13.04327        0.417
       18.33871        7.11646       28.66509       -0.834
       19.25409        7.15405       28.94240        0.417
       18.11010        8.02486       28.46819        0.417
        9.08773       26.63355       14.39560       -0.834
        8.63091       26.22682       15.13188        0.417
        9.71051       25.96835       14.10254        0.417
       18.05305        5.78330       15.15988       -0.834
       17.61257        5.56670       14.33812        0.417
       18.97310        5.88973       14.91820        0.417
       20.81329       24.50135       16.69235       -0.834
       20.62352       24.64422       15.76509        0.417
       20.58371       25.32912       17.11462        0.417
       20.04222       22.42544       19.68492       -0.834
       19.55176       21.99402       20.38461        0.417
       19.36970       22.80315       19.11809        0.417
       28.26707       18.64588       23.02938       -0.834
       27.94583       18.65198       23.93105        0.417
       27.93352       17.82765       22.66132        0.417
       26.10214       11.69608       17.18207       -0.834
       26.99889       11.40072       17.33966        0.417
       25.57012       10.90516       17.26944        0.417
        7.53786       22.17949       23.56399       -0.834
        7.89242       21.89207       24.40537        0.417
        8.26463       22.63664       23.14086        0.417
       17.87099       32.09854       14.54305       -0.834
       18.44803       32.52351       13.90850        0.417
       17.66564       31.25019       14.15016        0.417
       19.88752        8.87796       24.96380       -0.834
       19.78388        7.96527       25.23304        0.417
       20.79991        8.94283       24.68173        0.417
       31.22630       14.32082       12.49535       -0.834
       30.63254       15.04868       12.67945        0.417
       30.75747       13.54500       12.80280        0.417
       15.18095       13.75789       23.65914       -0.834
       15.03490       13.01730       23.07056        0.417
       15.43996       13.35741       24.48906        0.417
       15.72909       25.44007       27.19672       -0.834
       16.22759       26.01835       27.77407        0.417
       15.02522       25.99119       26.85458        0.417
        7.43804       10.61629       23.22445       -0.834
        7.94965       10.58343       22.41611        0.417
        7.19363       11.53717       23.31650        0.417
        4.89122       22.60177       10.37889       -0.834
        4.11345       22.10252       10.12978        0.417
        4.57138       23.24399       11.01252        0.417
       20.35602        9.40458       13.95593       -0.834
       21.03090        9.65982       14.58491        0.417