%Nproc=32
%Mem=120Gb
%chk=temp.chk
#p cam-b3lyp/6-31+G(d,p) nosymm charge Freq 

Calculation for S0 with freq for abs spect

0  1
 C         15.67001       17.52951       16.07990
 C         17.29263       15.73382       15.50664
 C         17.69386       15.59301       16.75284
 C         17.02629       16.30618       17.76575
 N         16.02668       17.20797       17.42578
 H         17.67125       15.12497       14.63812
 H         18.45954       14.96849       17.03646
 O         17.17321       16.07324       18.97937
 O         14.84122       18.33227       15.79511
 N         16.36929       16.69331       15.18925
 H         15.95504       16.77448       14.32139
 H         15.50575       17.72944       18.15479
 O         19.60024       15.07299       18.00222
 H         20.34268       15.56061       18.35893
 H         18.95684       15.06314       18.71086
 O         13.93612       16.84278       13.22542
 H         13.11206       17.32305       13.14493
 H         14.54290       17.47118       13.61677
 O         16.43113       21.09506       15.91783
 H         16.55323       20.32258       16.46972
 H         16.74580       21.82408       16.45238
 O         20.81029       17.17164       16.56780
 H         20.66865       17.58082       15.71413
 H         20.38624       16.31640       16.49732
 O         16.88691       17.08967       11.90396
 H         17.64894       17.46529       12.34493
 H         16.14825       17.61453       12.21243
 O         15.42617       19.11545       13.70515
 H         15.39168       19.82463       13.06320
 H         15.91369       19.48269       14.44250
 O         16.73793       11.79310       15.72701
 H         15.90171       11.95690       16.16307
 H         16.50513       11.64009       14.81125
 O         18.70676       18.69122       12.84426
 H         18.66930       19.48390       12.30903
 H         18.56975       18.99974       13.73996
 O         18.00006       13.69433       12.86347
 H         18.53217       13.04343       13.32110
 H         18.08676       14.48866       13.39049
 O         13.24835       18.25625       18.80450
 H         13.61026       19.03985       19.21829
 H         12.82082       17.78347       19.51859
 O         13.72025       12.51636       16.87001
 H         13.59050       12.61800       17.81291
 H         13.21441       13.22923       16.47992
 O         15.29583       14.26655       13.38443
 H         14.76081       15.03893       13.20164
 H         16.19824       14.57354       13.29704
 O         19.29407       12.69469       16.71196
 H         18.33894       12.72736       16.65817
 H         19.53917       13.51947       17.13135
 O         19.04140       19.68556       15.48944
 H         19.70341       19.94690       14.84938
 H         19.04975       20.38520       16.14264
 O         16.22152       17.74448       20.97994
 H         15.42261       18.26836       20.92064
 H         16.86034       18.32674       21.39118
 O         12.83639       14.40237       15.26684
 H         12.33946       14.32941       14.45199
 H         13.72434       14.62516       14.98729
 O         18.14732       15.54997       20.33648
 H         17.26563       15.85167       20.55522
 H         18.72858       16.19391       20.74108
 O         19.66567       18.24916       18.87515
 H         20.26354       18.11985       18.13890
 H         18.88431       18.63997       18.48402
 
        7.63819        8.78573       26.83542       -0.834
        8.07533        8.66445       25.99256        0.417
        8.35033        8.80331       27.47478        0.417
       19.74054       11.86199       14.26221       -0.834
       19.50304       12.23473       15.11126        0.417
       19.35507       10.98586       14.26846        0.417
       22.52923       12.44354       19.80538       -0.834
       22.40522       11.83350       20.53250        0.417
       23.47908       12.52755       19.72193        0.417
        7.82986       12.43379        8.27966       -0.834
        7.32626       12.47246        9.09275        0.417
        7.52961       13.18984        7.77522        0.417
       20.34597       29.37939       20.79318       -0.834
       20.07365       29.09665       19.92018        0.417
       20.07227       28.66794       21.37212        0.417
       11.70724       13.95134       12.77527       -0.834
       10.93648       13.89666       12.21031        0.417
       12.37464       13.43698       12.32114        0.417
       17.83959       18.47768       27.22599       -0.834
       18.49554       19.17410       27.25697        0.417
       17.47446       18.53103       26.34277        0.417
       12.46637       16.92698       29.82077       -0.834
       12.79806       17.41094       30.57707        0.417
       12.97056       16.11334       29.81656        0.417
       26.56423       26.60603       21.85663       -0.834
       26.72089       25.70508       21.57382        0.417
       26.07381       27.00187       21.13620        0.417
       22.50015       22.08884       21.69301       -0.834
       22.17871       22.92503       21.35581        0.417
       21.73604       21.68717       22.10657        0.417
       14.06027       10.23767        5.97329       -0.834
       14.97866       10.33164        6.22623        0.417
       14.08657        9.74729        5.15165        0.417
        8.64731       24.28324       12.06462       -0.834
        9.54295       23.95990       11.96714        0.417
        8.11049       23.49221       12.11279        0.417
       13.46902       12.19013       29.10953       -0.834
       12.78051       12.47433       28.50834        0.417
       14.22417       12.02011       28.54643        0.417
        4.17881       21.15639       11.48039       -0.834
        3.78643       21.93158       11.88208        0.417
        3.72453       20.41895       11.88788        0.417
        9.38575       10.57863       23.40691       -0.834
        9.23196        9.65257       23.59411        0.417
        8.76586       10.78843       22.70837        0.417
       30.71379       15.28550       20.90882       -0.834
       31.62689       15.57268       20.91139        0.417
       30.21134       16.08160       21.08203        0.417
       13.40639       22.19306        6.45201       -0.834
       13.17914       21.72121        5.65077        0.417
       14.13798       22.75630        6.19952        0.417
       13.84964       15.24816       25.77413       -0.834
       14.01431       15.56999       24.88783        0.417
       14.70256       14.93916       26.07958        0.417
       16.15572       26.36362       17.64283       -0.834
       15.42282       26.94361       17.84946        0.417
       16.71154       26.87836       17.05774        0.417
       21.38566        3.63711       23.21058       -0.834
       21.75790        4.06037       23.98422        0.417
       21.35307        4.32955       22.55050        0.417
       15.00759        4.83213       21.47010       -0.834
       15.65109        5.53731       21.40040        0.417
       15.24228        4.37186       22.27589        0.417
       24.95718       16.09544        9.08308       -0.834
       24.59590       16.86323        9.52603        0.417
       24.84949       16.28347        8.15073        0.417
       17.92968       30.55163       16.84931       -0.834
       18.11394       30.26573       15.95458        0.417
       17.04754       30.22609       17.02841        0.417
       15.35470        4.03552       18.86821       -0.834
       16.09366        4.56922       18.57609        0.417
       15.04378        4.47024       19.66230        0.417
        7.12493       24.22060       18.83424       -0.834
        7.25940       23.68258       19.61442        0.417
        7.47780       25.07843       19.07055        0.417
       26.49187       15.83691       11.76323       -0.834
       25.92555       15.09401       11.55441        0.417
       25.90074       16.49289       12.13268        0.417
        6.88494       22.04927       12.17050       -0.834
        7.45437       21.32569       12.43204        0.417
        6.12775       21.62499       11.76691        0.417
       12.67723       18.61416        8.98088       -0.834
       13.19406       19.41822        9.03186        0.417
       11.85896       18.82595        9.43011        0.417
       12.28491        8.00632       17.93186       -0.834
       12.11687        8.81584       17.44949        0.417
       12.16751        7.31190       17.28361        0.417
       16.33533        4.53784       24.26310       -0.834
       15.77674        3.76603       24.35545        0.417
       17.18065        4.26648       24.62090        0.417
        3.86682       12.46302       19.99491       -0.834
        4.19292       11.84401       19.34168        0.417
        3.00244       12.12768       20.23285        0.417
       18.15570        6.08194       13.97211       -0.834
       17.70383        6.21402       14.80554        0.417
       17.46869        6.16513       13.31081        0.417
       21.68029       29.05419       13.95091       -0.834
       22.59679       28.79501       13.85569        0.417
       21.71212       29.99984       14.09573        0.417
       13.72547        2.01755       17.46986       -0.834
       14.17675        2.82254       17.72398        0.417
       13.07279        2.30028       16.82932        0.417
       23.85275       11.84233        5.39657       -0.834
       23.30255       12.45057        5.89009        0.417
       24.74410       12.16669        5.52507        0.417
       13.00319       28.85910       12.52170       -0.834
       12.13808       28.92901       12.92533        0.417
       13.57293       29.38549       13.08254        0.417
        5.42077       10.44333       18.98212       -0.834
        6.26647       10.54044       18.54436        0.417
        5.63639       10.08885       19.84473        0.417
       20.49767       17.55209       10.91266       -0.834
       21.20355       16.96409       11.18139        0.417
       20.30669       18.07068       11.69422        0.417
       23.33711       11.29033       25.77431       -0.834
       22.75117       10.54670       25.63321        0.417
       23.43578       11.68582       24.90824        0.417
       19.14359       14.13063        8.96844       -0.834
       18.43785       14.69048        9.29208        0.417
       19.34300       13.54805        9.70129        0.417
       23.33919       27.96382       21.70588       -0.834
       23.87698       27.91892       20.91531        0.417
       23.81510       28.55770       22.28645        0.417
       17.13171       14.94906       10.58454       -0.834
       17.32027       14.34759       11.30490        0.417
       17.00908       15.79899       11.00741        0.417
        9.33228        8.41373       13.54296       -0.834
        8.71753        8.28709       12.82027        0.417
        9.71428        9.27699       13.38461        0.417
       21.41806       24.20127       20.63012       -0.834
       20.75755       24.88726       20.53331        0.417
       22.00791       24.32951       19.88724        0.417
       21.37492       14.82200       20.76643       -0.834
       22.29065       14.87362       20.49255        0.417
       21.07603       13.97118       20.44550        0.417
       21.98212       20.90107       24.27827       -0.834
       21.26309       20.28890       24.12184        0.417
       22.76935       20.41376       24.03531        0.417
       23.30266       26.19386        9.96380       -0.834
       22.58530       26.73130        9.62794        0.417
       23.48426       25.56973        9.26115        0.417
       14.09364       18.90411        3.45218       -0.834
       13.61803       18.18847        3.87395        0.417
       14.87053       19.02989        3.99701        0.417
       18.93413        3.46581       24.77013       -0.834
       19.03436        4.36791       25.07412        0.417
       19.69894        3.31321       24.21514        0.417
       15.05164        8.05880       17.54134       -0.834
       14.57579        8.05696       16.71080        0.417
       14.42162        7.72429       18.17963        0.417
       26.83369       21.29228        5.71106       -0.834
       26.29814       21.52058        4.95126        0.417
       26.20717       20.96580        6.35693        0.417
       14.04564        5.99024       24.52316       -0.834
       14.98806        5.82386       24.54323        0.417
       13.77952        5.97441       25.44248        0.417
       14.16653       22.26745       17.16287       -0.834
       14.73162       22.80535       17.71746        0.417
       14.65794       22.16436       16.34794        0.417
       27.51281       18.40046       22.64204       -0.834
       27.61256       17.88978       21.83861        0.417
       28.23624       19.02686       22.61962        0.417
        6.55959       15.90334       22.86291       -0.834
        5.85814       15.87965       23.51378        0.417
        6.23548       16.49304       22.18214        0.417
       26.80595        9.04870       12.08804       -0.834
       27.04674        9.72059       11.45021        0.417
       27.00642        9.44147       12.93761        0.417
       12.67506       10.35848        9.47935       -0.834
       12.83900       10.60674        8.56956        0.417
       11.87195       10.82345        9.71400        0.417
       28.42537       20.47437        9.46412       -0.834
       27.72670       19.96168        9.05763        0.417
       28.90569       19.84311        9.99988        0.417
       19.08221        9.06279       14.02042       -0.834
       18.83810        8.26929       14.49687        0.417
       18.47810        9.09268       13.27854        0.417
       11.46270        6.34231        9.32310       -0.834
       11.20799        6.33017        8.40049        0.417
       12.22270        5.76227        9.36989        0.417
        4.66990       24.95549       14.73791       -0.834
        4.12189       25.59991       14.29000        0.417
        5.56676       25.24366       14.56807        0.417
       27.12279       13.01436       13.90075       -0.834
       26.20036       13.17356       13.70073        0.417
       27.11307       12.59798       14.76259        0.417
       27.63811       13.03271       19.54330       -0.834
       28.03820       13.20442       18.69085        0.417
       27.80468       12.10389       19.70386        0.417
       18.91487       13.88207       30.18399       -0.834
       18.54598       13.00059       30.12782        0.417
       19.80840       13.74859       30.50023        0.417
       28.41612       15.57841       23.29768       -0.834
       29.32026       15.82297       23.49504        0.417
       27.91128       16.37555       23.45870        0.417
       11.39627       13.89327        6.82590       -0.834
       12.02454       13.35514        7.30749        0.417
       11.82290       14.74637        6.74559        0.417
       23.92051       24.21561       15.02405       -0.834
       23.29368       24.93427       15.10676        0.417
       24.14456       24.19848       14.09359        0.417
        9.92995       19.32270       27.06920       -0.834
        9.12936       18.82086       27.22233        0.417
       10.39373       18.83325       26.38980        0.417
        9.93345       21.13610       18.86854       -0.834
       10.23209       20.24618       19.05588        0.417
       10.48718       21.69485       19.41389        0.417
        6.52165       13.58894       19.84037       -0.834
        5.63447       13.38925       20.13913        0.417
        6.39739       14.17815       19.09632        0.417
        9.49689       18.69393       20.58098       -0.834
        8.82383       19.02524       21.17550        0.417
       10.20996       19.32897       20.64797        0.417
       16.47847       16.99337       29.11145       -0.834
       16.19036       17.67505       29.71852        0.417
       17.00090       17.45885       28.45829        0.417
       19.74436       28.91305       18.37011       -0.834
       19.09882       29.52864       18.02289        0.417
       20.32962       28.73797       17.63320        0.417
       23.14692       10.45191       21.97491       -0.834
       23.60283       11.21868       22.32196        0.417
       22.21894       10.68100       22.02590        0.417
        5.88774       12.49709       10.34382       -0.834
        5.07931       12.59192       10.84753        0.417
        6.50879       12.10578       10.95815        0.417
       19.49916       20.56932       26.38179       -0.834
       19.31693       20.91408       25.50763        0.417
       20.20676       21.12129       26.71476        0.417
       21.29533       25.06147       24.39285       -0.834
       21.59635       25.59637       25.12736        0.417
       20.62030       24.49620       24.76840        0.417
       25.61478        5.69715       19.62064       -0.834
       25.83747        5.49023       18.71299        0.417
       25.23305        4.88940       19.96422        0.417
       13.32126       12.44148        7.73873       -0.834
       13.92516       12.95181        8.27827        0.417
       13.87957       11.80949        7.28583        0.417
       17.08692        5.87106       16.34892       -0.834
       16.47214        6.60301       16.29858        0.417
       17.47723        5.94495       17.21980        0.417
       16.47598       18.95829        4.94520       -0.834
       17.23944       18.43178        4.70827        0.417
       16.09384       18.50287        5.69540        0.417
        9.14754       16.32578       24.01198       -0.834
        8.40291       16.02773       23.48956        0.417
        9.02027       15.91529       24.86728        0.417
       17.70793        9.77411       11.64823       -0.834
       17.67270       10.19539       10.78942        0.417
       17.10161       10.28038       12.18890        0.417
       27.26659       20.29826       19.78155       -0.834
       27.41205       19.36207       19.91801        0.417
       26.39823       20.46232       20.14934        0.417
        6.13088       20.23953        9.47870       -0.834
        6.26095       20.77385        8.69524        0.417
        5.27286       20.50448        9.81016        0.417
       16.27966       25.50262        8.85456       -0.834
       16.10115       26.41828        8.64022        0.417
       15.45583       25.04926        8.67564        0.417
       23.32634       24.45002        7.80071       -0.834
       22.51955       24.66986        7.33490        0.417
       24.02320       24.61899        7.16662        0.417
       14.79450        6.61312       11.88808       -0.834
       13.94447        6.86258       12.25064        0.417
       14.92824        7.21368       11.15482        0.417
       13.65679       26.01956       20.07128       -0.834
       12.98884       26.11779       19.39273        0.417
       14.18525       26.81488       20.00475        0.417
        6.97854       23.08554       23.97860       -0.834
        7.66245       23.75461       23.94962        0.417
        6.41737       23.34744       24.70848        0.417
       29.24457       22.38771       19.52779       -0.834
       29.98704       21.93278       19.13029        0.417
       28.59570       21.70066       19.67999        0.417
        4.09330       16.59812        8.82850       -0.834
        4.58617       16.30771        9.59595        0.417
        3.38918       17.13905        9.18607        0.417
       17.54649       26.11135       20.79124       -0.834
       16.61822       25.88059       20.75527        0.417
       17.92225       25.49697       21.42178        0.417
        4.58164       12.03724        7.97510       -0.834
        5.07474       11.24385        7.76627        0.417
        5.09832       12.46881        8.65555        0.417
       22.88404       16.21739       29.98582       -0.834
       22.10459       16.12115       30.53301        0.417
       22.66353       15.76402       29.17215        0.417
       19.84494       12.39454       11.12436       -0.834
       20.18326       11.66440       11.64270        0.417
       19.04425       12.65951       11.57703        0.417
        9.62433       15.57281        9.29575       -0.834
       10.25055       14.85367        9.21254        0.417
        9.18586       15.60879        8.44564        0.417
       22.86670       26.75291       17.85016       -0.834
       22.56111       26.61972       16.95288        0.417
       23.62127       26.17021       17.93568        0.417
       13.34555       10.38840       22.29793       -0.834
       14.17095       10.65714       21.89454        0.417
       12.85138        9.98240       21.58576        0.417
        2.78425       17.65329       20.16279       -0.834
        3.62340       17.63130       20.62277        0.417
        2.31820       18.39480       20.54906        0.417
        3.74966       18.11244       24.19566       -0.834
        3.30983       17.58509       23.52881        0.417
        3.20605       18.01311       24.97723        0.417
        9.50957       14.79332        4.45274       -0.834
       10.27522       14.86661        3.88296        0.417
        9.87215       14.75010        5.33756        0.417
       28.69633       13.95226       16.72666       -0.834
       29.29605       13.30752       16.35132        0.417
       29.19713       14.76792       16.73777        0.417
       11.52037       30.50214       14.22921       -0.834
       11.02720       31.29029       14.45689        0.417
       10.93258       30.00795       13.65780        0.417
       14.48279        7.59105       28.63954       -0.834
       14.22313        6.69412       28.42900        0.417
       14.87339        7.92377       27.83148        0.417
       24.59695       12.77431       28.20182       -0.834
       24.41328       12.85304       27.26571        0.417
       24.05633       12.03942       28.49148        0.417
        6.99915       19.02547       27.35230       -0.834
        6.74026       18.26261       27.86928        0.417
        7.19278       19.70119       28.00202        0.417
       20.95304        9.78383        6.52843       -0.834
       21.14758        9.23960        7.29144        0.417
       21.75169        9.75295        6.00168        0.417
       15.61717       24.05257       19.19526       -0.834
       15.16173       24.52076       19.89498        0.417
       15.88995       24.73830       18.58568        0.417
       16.45633       14.77216       30.44015       -0.834
       17.36808       14.57611       30.22446        0.417
       16.25896       15.56847       29.94703        0.417
       11.61989       26.64040       15.84064       -0.834
       11.75816       25.85165       15.31624        0.417
       10.81894       27.02672       15.48644        0.417
       30.13552       16.14521       15.65957       -0.834
       29.36561       15.87874       15.15711        0.417
       30.85544       15.64029       15.28140        0.417
       18.17876        9.04015       19.95027       -0.834
       19.04754        8.90467       20.32853        0.417
       18.32521        9.03389       19.00436        0.417
       11.48358       12.17102       24.00138       -0.834
       12.05332       11.82464       23.31462        0.417
       10.78134       11.52521       24.07903        0.417
       11.51829        3.07322       16.50972       -0.834
       11.60676        2.65798       15.65183        0.417
       10.57372        3.12003       16.65743        0.417
       19.74033        7.99068       10.77830       -0.834
       18.87605        8.22457       11.11674        0.417
       20.31713        8.68772       11.09081        0.417
       14.78416       14.54347        9.04465       -0.834
       15.50627       14.55331        9.67290        0.417
       14.11285       15.09823        9.44192        0.417
       21.90990       13.11439        7.38622       -0.834
       21.22662       13.68866        7.73200        0.417
       21.87011       12.33408        7.93917        0.417
       18.67945        3.35601       20.22362       -0.834
       18.37670        2.64739       19.65580        0.417
       18.52530        3.03429       21.11186        0.417
       25.90128        7.70205       15.95634       -0.834
       25.94881        6.89879       16.47475        0.417
       25.22516        8.22560       16.38645        0.417
       20.81860        5.32378       21.10366       -0.834
       20.18170        4.74234       20.68829        0.417
       20.28735        5.99664       21.52940        0.417
       18.45181        8.94794        7.01784       -0.834
       17.83508        8.90584        6.28701        0.417
       19.30961        9.03925        6.60303        0.417
       11.43869       14.89291       22.93740       -0.834
       11.82924       14.25322       23.53279        0.417
       10.70854       15.26595       23.43131        0.417
       18.91456       11.83113        5.30800       -0.834
       18.45949       11.33476        4.62773        0.417
       19.59730       11.23808        5.62168        0.417
        9.80063       20.26509       15.03982       -0.834
        9.68663       21.15786       15.36571        0.417
       10.64122       20.28214       14.58226        0.417
       22.04877       11.38347        9.51722       -0.834
       21.76928       10.50249        9.26823        0.417
       21.34418       11.70951       10.07712        0.417
       14.58588        4.21026        7.88237       -0.834
       14.26523        4.49104        7.02530        0.417
       15.10510        4.94970        8.19839        0.417
       14.56744       20.37938       19.56054       -0.834
       14.61530       21.06904       18.89849        0.417
       14.65160       20.84124       20.39471        0.417
        2.66517       16.01481       17.98749       -0.834
        2.43990       16.80385       18.48033        0.417
        3.21441       16.32908       17.26930        0.417
       18.24540       11.36924       28.81800       -0.834
       18.03664       10.79468       29.55457        0.417
       18.96828       10.93090       28.36908        0.417
       20.31571       17.24192       21.24832       -0.834
       20.29932       17.66874       20.39171        0.417
       20.70037       16.38163       21.08046        0.417
        7.96274       18.01159        6.50421       -0.834
        7.96525       17.45554        5.72506        0.417
        8.76598       18.52738        6.43353        0.417
       12.68355       12.38993        4.46829       -0.834
       13.13226       11.63663        4.85225        0.417
       12.17144       12.75709        5.18883        0.417
       10.35849        9.28596       28.28987       -0.834
       11.06589        9.66598       28.81083        0.417
       10.15103        9.95792       27.64049        0.417
       17.21258        8.25462       23.70922       -0.834
       16.29939        8.50578       23.84791        0.417
       17.71720        9.01434       23.99976        0.417
        4.21001        8.15366       18.03886       -0.834
        4.60912        8.99917       18.24394        0.417
        3.31943        8.21873       18.38364        0.417
       20.33556       21.30883        7.00764       -0.834
       19.51544       20.96904        6.64963        0.417
       20.06700       21.85352        7.74751        0.417
       17.08711        3.29301       15.13646       -0.834
       16.61651        3.55330       14.34461        0.417
       17.16148        4.09907       15.64732        0.417
        8.57527       12.69465       15.02256       -0.834
        9.19799       12.65482       15.74840        0.417
        8.29199       13.60867       14.99926        0.417
       17.44029       16.94007       24.44259       -0.834
       17.57899       17.75268       23.95613        0.417
       16.48898       16.83908       24.47488        0.417
       21.77119       21.80984       27.02698       -0.834
       22.55177       21.76818       27.57942        0.417
       22.10346       21.71382       26.13445        0.417
       19.18351       29.49803       23.72617       -0.834
       19.66457       28.77628       23.32134        0.417
       18.62421       29.07727       24.37914        0.417
        2.80603       11.17571       17.28695       -0.834
        2.74874       10.66190       16.48137        0.417
        3.31876       11.94662       17.04395        0.417
        5.08088       15.94467       11.38360       -0.834
        5.83745       15.38044       11.54334        0.417
        4.74136       16.14358       12.25618        0.417
       28.96437       13.51727       10.75420       -0.834
       28.55401       13.26992       11.58285        0.417
       28.31087       14.06248       10.31611        0.417
       26.72989       22.99238        9.14135       -0.834
       27.59001       22.76165        8.79035        0.417
       26.81621       23.90846        9.40514        0.417
       14.77317       22.31128       14.10599       -0.834
       15.42704       21.80771       14.59086        0.417
       15.25104       23.07376       13.77967        0.417
        9.80103        9.47710       19.81610       -0.834
        9.33352        9.62954       18.99486        0.417
        9.21292        9.81235       20.49283        0.417
       18.06612       23.73084        9.93638       -0.834
       18.85553       24.20774       10.19255        0.417
       17.47829       24.40514        9.59578        0.417
       12.49333       16.46855       20.93200       -0.834
       11.87433       15.82933       20.57921        0.417
       12.40005       16.39408       21.88173        0.417