%Nproc=32
%Mem=120Gb
%chk=temp.chk
#p cam-b3lyp/6-31+G(d,p) nosymm charge Freq 

Calculation for S0 with freq for abs spect

0  1
 C         15.67001       17.52951       16.07990
 C         17.29263       15.73382       15.50664
 C         17.69386       15.59301       16.75284
 C         17.02629       16.30618       17.76575
 N         16.02668       17.20797       17.42578
 H         17.67125       15.12497       14.63812
 H         18.45954       14.96849       17.03646
 O         17.17321       16.07324       18.97937
 O         14.84122       18.33227       15.79511
 N         16.36929       16.69331       15.18925
 H         15.95504       16.77448       14.32139
 H         15.50575       17.72944       18.15479
 O         14.28326       14.34146       17.20721
 H         13.73805       15.00135       17.63561
 H         14.05875       13.52186       17.64778
 O         13.09969       14.14506       14.78132
 H         13.64882       14.38212       15.52865
 H         13.24013       14.84856       14.14760
 O         17.68823       19.23232       13.07594
 H         18.54439       19.08009       13.47599
 H         17.88502       19.66570       12.24547
 O         16.36679       21.56944       14.88207
 H         16.88298       20.90246       15.33474
 H         15.52437       21.14740       14.71338
 O         19.17519       13.80640       13.89874
 H         18.35509       13.31906       13.82012
 H         19.20484       14.35438       13.11447
 O         18.08846       17.50756       20.38096
 H         18.87646       17.92908       20.72390
 H         17.65468       17.14505       21.15339
 O         13.50228       16.34934       12.94245
 H         14.10822       16.80804       12.36050
 H         12.74615       16.93244       13.00950
 O         21.08100       17.51143       15.73353
 H         21.87649       17.72403       16.22162
 H         20.36738       17.82278       16.29034
 O         15.73469       17.21651       11.66172
 H         16.41612       17.58618       12.22317
 H         15.54497       17.90795       11.02756
 O         14.14501       15.96802       20.79585
 H         13.93672       16.71509       20.23484
 H         13.30315       15.53742       20.94446
 O         18.23319       20.23550       16.26346
 H         18.37338       19.53290       16.89823
 H         18.87039       20.06331       15.57025
 O         13.70048       18.07476       19.37630
 H         12.87978       18.54302       19.22331
 H         14.33035       18.49737       18.79243
 O         16.00164       14.08287       20.59467
 H         16.31005       14.36373       19.73314
 H         15.40192       14.77529       20.87235
 O         19.28835       18.18246       17.84165
 H         19.48320       17.53146       18.51578
 H         19.01581       18.95936       18.32990
 O         17.53257       20.41302       19.06242
 H         16.72154       20.02195       18.73758
 H         17.54257       20.20386       19.99643
 O         20.14269       13.70658       17.37895
 H         19.33187       14.13642       17.65107
 H         20.53351       13.39307       18.19455
 
       16.23724       16.36221       23.05670       -0.834
       15.38460       16.18636       22.65881        0.417
       16.27295       15.77935       23.81514        0.417
       21.19804       12.13900       25.67013       -0.834
       20.71564       12.91024       25.37226        0.417
       21.02798       11.47625       25.00076        0.417
       24.46826        9.77355       27.83833       -0.834
       24.85962       10.16103       28.62123        0.417
       23.56768       10.09785       27.83460        0.417
        8.34544       20.15895       15.24892       -0.834
        8.43068       19.39431       15.81838        0.417
        7.42752       20.41780       15.33049        0.417
       18.52306       14.38899       31.71073       -0.834
       18.93713       14.04390       30.91973        0.417
       17.90640       15.04757       31.39101        0.417
       18.31888       30.22499       17.92519       -0.834
       17.76961       30.78185       18.47696        0.417
       18.70075       30.82443       17.28403        0.417
       19.53609        9.80895        6.62168       -0.834
       20.45154       10.06463        6.50853        0.417
       19.05277       10.63505        6.60827        0.417
        5.74755       10.45138       14.92016       -0.834
        5.95849        9.81157       14.24018        0.417
        4.85814       10.73785       14.71254        0.417
       14.63930       21.92596        2.40649       -0.834
       14.23620       22.46866        3.08415        0.417
       15.14729       21.27516        2.89087        0.417
       19.57773       31.11509       20.78400       -0.834
       18.80516       30.56693       20.64656        0.417
       19.32271       31.71859       21.48185        0.417
       18.61519       24.51844       21.02960       -0.834
       17.82069       24.24835       20.56911        0.417
       19.33046       24.15527       20.50737        0.417
       13.68357       22.08392       23.07629       -0.834
       14.61337       22.30326       23.01629        0.417
       13.45129       21.78111       22.19846        0.417
       12.29997       19.53932       10.21908       -0.834
       11.53965       19.94189        9.79945        0.417
       11.92927       18.98074       10.90231        0.417
       16.13792        6.81450       13.01135       -0.834
       15.87992        7.73228       12.92564        0.417
       15.70188        6.37353       12.28221        0.417
       26.23890       21.47106       23.85476       -0.834
       25.82451       21.80176       23.05779        0.417
       26.11242       22.16842       24.49812        0.417
       23.22358       19.65541       26.32082       -0.834
       22.88550       18.76826       26.19878        0.417
       24.17351       19.56224       26.24886        0.417
        7.47320       22.92735       26.72303       -0.834
        6.97453       22.83936       25.91074        0.417
        8.38890       22.92135       26.44432        0.417
       14.17655       14.57316       29.72918       -0.834
       14.18625       13.84146       29.11213        0.417
       13.28073       14.90815       29.69014        0.417
       11.75798       21.69123       17.75149       -0.834
       11.46052       22.20692       18.50103        0.417
       11.27345       22.04817       17.00714        0.417
        8.29664       23.15922       17.65400       -0.834
        7.84424       24.00235       17.62781        0.417
        7.64569       22.54820       17.99918        0.417
       29.27826       14.57640       14.57720       -0.834
       30.02443       14.37679       15.14255        0.417
       29.67157       14.85935       13.75168        0.417
       27.16005       24.63217       18.46090       -0.834
       26.75776       25.44650       18.15881        0.417
       26.43949       24.14014       18.85452        0.417
       18.89505       17.60869       23.62188       -0.834
       18.80416       18.21112       22.88361        0.417
       18.02966       17.21022       23.71441        0.417
       24.82267       16.12981       26.85768       -0.834
       24.02809       16.57947       26.57012        0.417
       24.51537       15.48044       27.49022        0.417
        7.14650        5.82193       12.64005       -0.834
        7.14921        6.11942       11.73026        0.417
        7.54471        6.54196       13.12916        0.417
       25.94369       19.89659       19.35925       -0.834
       26.41891       19.66684       18.56075        0.417
       26.62756       20.13284       19.98595        0.417
       23.65924       27.22892       17.14757       -0.834
       23.86381       28.14200       16.94592        0.417
       22.75768       27.25020       17.46846        0.417
       17.21862       15.06722        1.82008       -0.834
       17.10498       15.64560        1.06590        0.417
       16.68635       14.29846        1.61533        0.417
        3.75973        9.99950       18.41373       -0.834
        3.23980       10.44922       17.74766        0.417
        4.50477       10.58005       18.56902        0.417
       18.79919       29.81490       10.52596       -0.834
       19.00079       28.99219       10.97176        0.417
       19.65430       30.20154       10.33750        0.417
       23.67619       11.19035       11.87855       -0.834
       24.26230       11.92528       12.05904        0.417
       24.25513       10.43029       11.82065        0.417
       11.05433        3.58614       20.19320       -0.834
       10.81585        4.21756       19.51447        0.417
       10.46462        3.78219       20.92124        0.417
       19.44131        1.70586       15.51928       -0.834
       19.17018        2.49401       15.04860        0.417
       19.36595        1.94080       16.44414        0.417
       24.65694       19.61205        9.04548       -0.834
       24.68097       20.30566        8.38627        0.417
       24.76324       20.06975        9.87941        0.417
       27.10435       10.60806        9.13566       -0.834
       26.72536       11.45024        8.88401        0.417
       28.04658       10.77162        9.17683        0.417
       13.96607        9.81939        2.42260       -0.834
       13.30050       10.44487        2.13621        0.417
       14.12683       10.04294        3.33934        0.417
       12.30669       13.10571        5.22820       -0.834
       12.06184       13.75660        5.88594        0.417
       11.50552       12.95976        4.72514        0.417
        9.18309       11.29427       12.99797       -0.834
        9.37868       11.23765       12.06268        0.417
        9.75645       10.64347       13.40288        0.417
       20.86967       20.08562       27.50992       -0.834
       20.91560       19.44789       28.22226        0.417
       21.75473       20.10282       27.14577        0.417
       12.55706        8.76950       18.55604       -0.834
       13.13865        8.23273       18.01769        0.417
       12.14766        9.37434       17.93733        0.417
       21.59548       14.86521       30.78754       -0.834
       21.84921       15.48237       31.47381        0.417
       20.71925       15.14630       30.52400        0.417
       16.46544       23.35435       19.75477       -0.834
       16.89762       23.22791       18.91010        0.417
       16.14381       22.48467       19.99235        0.417
       11.16727       18.94198       18.18005       -0.834
       11.46642       19.85117       18.16966        0.417
       10.40500       18.93351       17.60117        0.417
       23.77480       13.59464       15.73533       -0.834
       23.31847       12.91063       16.22535        0.417
       23.08513       14.03445       15.23819        0.417
        7.03034       11.18419        9.32877       -0.834
        6.44544       10.48060        9.61002        0.417
        6.80655       11.32923        8.40947        0.417
       29.37622        8.84172       16.10639       -0.834
       28.68155        9.33237       16.54562        0.417
       29.44222        8.02464       16.60055        0.417
       21.07314       23.95434       19.94233       -0.834
       21.89639       24.20867       19.52543        0.417
       20.83089       23.13327       19.51408        0.417
       10.88019       17.91983       21.60563       -0.834
       11.00375       17.02587       21.28657        0.417
       10.86508       17.83448       22.55889        0.417
       11.19003       25.55257       15.38914       -0.834
       10.94163       25.16079       16.22642        0.417
       10.35747       25.74465       14.95766        0.417
       15.05602       20.84452        8.03663       -0.834
       15.96766       20.90387        7.75092        0.417
       14.57176       20.60648        7.24602        0.417
       24.24188        9.96683       15.86222       -0.834
       23.72434       10.48046       16.48236        0.417
       24.54175        9.21137       16.36777        0.417
       16.96045        2.99463       21.34437       -0.834
       16.38103        3.75061       21.24955        0.417
       16.90564        2.76511       22.27203        0.417
       15.52673       17.22434       26.04380       -0.834
       16.28316       17.65572       25.64635        0.417
       15.85264       16.36410       26.30838        0.417
       16.26845       15.06319        6.35951       -0.834
       15.86962       14.19304        6.36281        0.417
       16.86006       15.05317        5.60710        0.417
       21.79685       12.47719       28.33403       -0.834
       22.15473       13.36144       28.41311        0.417
       21.72421       12.33116       27.39083        0.417
        3.09063       14.10319       18.03349       -0.834
        3.38013       15.01038       17.93633        0.417
        3.90129       13.59707       18.08754        0.417
       18.70227       13.00944       29.23193       -0.834
       19.39025       12.34803       29.30582        0.417
       17.90234       12.55401       29.49446        0.417
        7.95609       21.81845       12.16271       -0.834
        7.81391       21.39293       11.31716        0.417
        7.07658       22.02920       12.47621        0.417
       25.41248        8.23123       17.43643       -0.834
       26.20176        8.76064       17.32258        0.417
       25.60396        7.41325       16.97764        0.417
       11.40083       10.46152       16.70377       -0.834
       10.84744        9.85880       16.20707        0.417
       11.85942       10.97173       16.03623        0.417
       11.34275       15.29582       21.12236       -0.834
       11.21318       15.18641       22.06442        0.417
       10.85883       14.57035       20.72771        0.417
       13.15331       22.46577        9.64284       -0.834
       12.75530       21.66140        9.97573        0.417
       13.96443       22.17693        9.22465        0.417
       10.97300        9.47712        4.69027       -0.834
       11.83974        9.75688        4.39577        0.417
       11.12042        8.61994        5.08985        0.417
       17.74358       23.79011       10.46529       -0.834
       17.53017       24.70253       10.26986        0.417
       16.91823       23.40968       10.76581        0.417
       15.41562       27.05003       17.70965       -0.834
       14.55698       27.45886       17.81840        0.417
       15.22136       26.14418       17.46896        0.417
       11.39864        9.61871       27.34996       -0.834
       11.80698        9.81568       26.50693        0.417
       12.09439        9.75897       27.99221        0.417
       20.33715        8.06652       24.78576       -0.834
       19.58578        8.00271       25.37534        0.417
       20.49497        7.16674       24.49988        0.417
       22.44845        2.94938       16.82969       -0.834
       22.80988        2.21292       16.33651        0.417
       23.17660        3.25727       17.36935        0.417
       25.87618        8.43149       25.37323       -0.834
       25.95613        9.36621       25.18329        0.417
       24.93403        8.28263       25.45344        0.417
       25.17892       19.75326        4.84428       -0.834
       25.96375       19.86883        4.30864        0.417
       24.88418       20.64408        5.03350        0.417
       18.84627       12.38310        6.02657       -0.834
       18.13384       12.69110        5.46639        0.417
       19.61265       12.87561        5.73276        0.417
       15.76133        7.10800        8.49202       -0.834
       16.62856        7.41785        8.75304        0.417
       15.83909        6.15398        8.48614        0.417
       24.84291        3.22498       18.39857       -0.834
       24.64757        4.07778       18.78691        0.417
       25.01068        2.65300       19.14751        0.417
        4.00871       17.72545       22.61878       -0.834
        3.75716       18.04872       23.48390        0.417
        3.22403       17.83928       22.08255        0.417
       17.86926       27.97359       19.37793       -0.834
       18.01509       28.64764       18.71413        0.417
       17.22337       27.38613       18.98557        0.417
       26.62124       25.48244       13.26141       -0.834
       26.15891       25.90609       12.53822        0.417
       27.20465       26.16005       13.60303        0.417
        9.04519       12.39206        7.03116       -0.834
        9.17124       12.78953        6.16955        0.417
        8.20116       11.94500        6.96805        0.417
        5.28178       17.15448       10.48040       -0.834
        4.65628       17.63719        9.94005        0.417
        5.94785       17.80154       10.71254        0.417
       15.86179        5.70266       25.95115       -0.834
       16.31516        5.02081       26.44690        0.417
       16.44189        6.46234       26.00214        0.417
       27.27840       12.52640       12.84738       -0.834
       26.48899       12.23076       13.30086        0.417
       27.24148       13.48149       12.89921        0.417
       11.83332       17.52888        4.45963       -0.834
       12.65084       17.51113        3.96205        0.417
       11.16495       17.76088        3.81489        0.417
       20.51476        4.37444       10.59916       -0.834
       21.33454        4.47728       11.08251        0.417
       19.92574        5.02286       10.98495        0.417
       18.58399       25.21242       16.08897       -0.834
       18.29625       24.54682       16.71380        0.417
       17.88768       25.24265       15.43287        0.417
        5.53059       19.46340       18.66464       -0.834
        4.67404       19.88832       18.62002        0.417
        6.12931       20.15839       18.93806        0.417
        5.36354       19.34445       25.05991       -0.834
        6.13590       19.79475       24.71796        0.417
        5.71260       18.56819       25.49788        0.417
       15.89149       11.29393       11.35676       -0.834
       15.55120       10.89316       10.55688        0.417
       15.22815       11.93852       11.60319        0.417
       14.29919       22.34361       26.52860       -0.834
       13.73848       21.82808       25.94888        0.417
       14.98467       21.73464       26.80339        0.417
       16.23490       27.84653       21.43006       -0.834
       16.80071       27.38117       22.04611        0.417
       16.79465       28.01828       20.67281        0.417
       16.26246       24.15887       14.97256       -0.834
       15.38339       24.34234       15.30394        0.417
       16.31785       23.20343       14.95525        0.417
       20.06764        6.52214       21.91121       -0.834
       19.23907        6.51966       22.39047        0.417
       20.15182        7.41702       21.58206        0.417
        6.19468       18.03294       21.29030       -0.834
        5.80829       17.89277       20.42584        0.417
        5.45839       17.95788       21.89731        0.417
       20.62912       27.09743       15.16179       -0.834
       20.04329       26.35377       15.30323        0.417
       20.75667       27.47165       16.03353        0.417
        7.03132       10.67852       25.19243       -0.834
        6.93588       11.60798       24.98449        0.417
        7.71727       10.65104       25.85947        0.417
       27.40028       10.06585       17.45651       -0.834
       27.53214       10.93629       17.08076        0.417
       27.84757       10.09922       18.30212        0.417
       17.64730       13.60618       10.95207       -0.834
       17.38187       12.70938       11.15584        0.417
       16.88362       13.99056       10.52163        0.417
       24.84570       25.34421       24.96499       -0.834
       24.00159       25.54226       25.37056        0.417
       25.27355       26.19555       24.87336        0.417
       12.48453       11.59310       14.35515       -0.834
       12.81383       12.49072       14.40055        0.417
       12.52122       11.37078       13.42484        0.417
       13.83512       19.74764        5.74102       -0.834
       14.30807       18.91581        5.71639        0.417
       12.91129       19.49958        5.70581        0.417
        7.20860       18.63971       11.91606       -0.834
        7.39953       19.51712       12.24760        0.417
        7.82285       18.06951       12.37846        0.417
       22.73261       25.93909       14.03453       -0.834
       23.21705       26.71974       13.76595        0.417
       22.05562       26.26835       14.62573        0.417
       21.47323       11.22832       13.37892       -0.834
       22.30434       11.08506       12.92620        0.417
       21.23884       12.13254       13.16991        0.417
       20.20985        4.44210        8.00110       -0.834
       20.46506        4.37079        8.92089        0.417
       20.18865        5.38369        7.83023        0.417
        4.94053       15.32866       23.88837       -0.834
        4.74009       15.91191       23.15633        0.417
        4.51835       15.73781       24.64375        0.417
       25.09178       26.82809       11.59510       -0.834
       24.49102       27.12912       12.27679        0.417
       24.57099       26.84404       10.79213        0.417
       19.61286       12.57292        9.02564       -0.834
       19.02022       13.23071        9.38939        0.417
       19.59427       12.72907        8.08145        0.417
        9.73260       22.25342       25.18624       -0.834
       10.65131       22.25952       24.91760        0.417
        9.53033       21.32873       25.32859        0.417
       17.62219       27.99074       16.22768       -0.834
       16.80391       28.00428       16.72413        0.417
       17.94058       27.09221       16.31426        0.417
       15.90293        4.88969       15.27757       -0.834
       15.99737        5.45839       14.51345        0.417
       16.78003        4.85275       15.65911        0.417
       14.56597       21.52427       19.87700       -0.834
       14.53217       21.57818       18.92192        0.417
       13.87581       20.90210       20.10682        0.417
       13.77192       12.89444       27.44976       -0.834
       14.00934       12.96313       26.52502        0.417
       13.48210       11.98843       27.55646        0.417
       12.34889        3.55492       25.05143       -0.834
       11.40617        3.63373       25.19734        0.417
       12.60603        4.39974       24.68212        0.417
       21.15530       22.97998        9.65319       -0.834
       20.95091       23.80883       10.08617        0.417
       20.76783       22.31189       10.21867        0.417
       20.23014       22.12698        7.16660       -0.834
       20.79002       21.37011        7.33953        0.417
       20.51621       22.78651        7.79860        0.417
        4.84771       23.98542       15.68968       -0.834
        5.49566       24.33300       16.30252        0.417
        4.32498       24.74613       15.43608        0.417
       13.14768        7.89731        9.27509       -0.834
       12.59284        7.72614        8.51412        0.417
       14.03301        7.68567        8.97906        0.417
       23.86379        7.24195       22.96305       -0.834
       23.32677        8.00236       22.74029        0.417
       23.87658        7.22925       23.92008        0.417
        4.38503       16.25096       12.70547       -0.834
        4.87745       16.79912       13.31643        0.417
        4.59612       16.60508       11.84160        0.417
       19.19465       10.38643        3.03066       -0.834
       19.10561        9.60411        3.57498        0.417
       19.51201       11.06138        3.63062        0.417
       24.76077       14.21000       23.48622       -0.834
       24.27695       14.78126       24.08271        0.417
       25.62273       14.61895       23.40860        0.417
       11.81594       23.82412       23.69188       -0.834
       11.67910       24.19970       22.82214        0.417
       12.53289       23.20095       23.57409        0.417
       19.49633       22.42541       22.82444       -0.834
       19.74036       22.41989       23.74999        0.417
       19.42432       23.35332       22.60077        0.417
       20.61052        7.02304        7.52484       -0.834
       21.35054        7.60051        7.71228        0.417
       20.29540        7.30753        6.66694        0.417
       26.20989        6.22992       15.92371       -0.834
       25.87620        5.98419       15.06087        0.417
       27.04397        5.76643       15.99937        0.417
       14.92627       27.55502       10.86152       -0.834
       15.38953       27.53588       10.02411        0.417
       15.60093       27.36498       11.51340        0.417
       11.75662       15.35442        6.57293       -0.834
       11.57412       15.84477        5.77138        0.417
       11.49609       15.94473        7.27996        0.417
       17.90389       24.41453        6.54067       -0.834
       18.50999       24.07679        7.20006        0.417
       17.08997       23.93494        6.69477        0.417
        3.08496       11.34861       13.99354       -0.834
        3.65127       12.08358       13.75827        0.417
        2.54750       11.20108       13.21534        0.417
       12.82169       27.69429       16.77211       -0.834
       12.54518       26.95272       16.23374        0.417
       12.47543       28.46264       16.31827        0.417
        8.52300       26.27397       14.66416       -0.834
        7.79540       26.27304       15.28612        0.417
        8.24305       25.68149       13.96643        0.417
       28.48643       17.21210       22.91321       -0.834
       28.15223       16.66879       23.62690        0.417
       28.25819       18.10678       23.16554        0.417
       24.65064       11.76292       19.25083       -0.834
       24.10744       11.03837       18.94068        0.417
       25.17921       11.38324       19.95275        0.417
       18.11580       18.38216        5.90843       -0.834
       18.78612       18.78990        5.36011        0.417
       18.17875       18.84147        6.74587        0.417
       12.95071        9.99108       24.89040       -0.834
       12.89352       10.52944       24.10102        0.417
       13.03993        9.09560       24.56422        0.417
       24.75928       21.64848        7.39324       -0.834
       25.20660       22.05692        6.65209        0.417
       24.53241       22.37890        7.96878        0.417
       21.55103       16.55526       23.28647       -0.834
       20.65277       16.85938       23.41638        0.417
       21.46951       15.81709       22.68257        0.417
       16.42846        7.87142       19.03250       -0.834
       15.77999        8.04699       18.35067        0.417
       16.01055        8.16434       19.84230        0.417
       13.40047       16.43939       24.11410       -0.834
       13.14218       15.58277       24.45430        0.417
       14.16634       16.68309       24.63399        0.417
       24.45125       15.26469        6.39366       -0.834
       24.49767       16.20526        6.56515        0.417
       23.70876       14.96181        6.91634        0.417
       12.95569        6.27070       27.85630       -0.834
       13.37184        6.43402       28.70269        0.417
       13.65569        6.39852       27.21606        0.417
        8.46489       22.78188       22.73005       -0.834
        8.87585       22.53884       23.55968        0.417
        8.26819       23.71396       22.82366        0.417
       23.67615       25.76887        7.64051       -0.834
       22.95171       25.91190        8.24957        0.417
       24.10695       24.97676        7.96176        0.417
        8.03200       19.16695        7.74142       -0.834
        7.51593       18.36453        7.81905        0.417
        8.36563       19.15187        6.84437        0.417
       10.64268       15.75475       15.40421       -0.834
       11.30349       15.09548       15.19225        0.417
       10.64763       15.80075       16.36029        0.417
        9.21468       27.00240       17.65656       -0.834
        9.22486       27.63536       16.93858        0.417
        9.78075       27.38851       18.32492        0.417
        5.03200       23.48027       21.27209       -0.834
        5.92261       23.78032       21.45379        0.417
        4.80084       22.94229       22.02931        0.417
       10.97160       16.25236       28.61875       -0.834
       11.74094       16.80065       28.46469        0.417
       10.36722       16.81687       29.10071        0.417
       27.56453       19.26410       16.76694       -0.834
       28.51985       19.21422       16.80033        0.417
       27.27984       18.35494       16.67415        0.417
       11.11767       15.00847       18.09275       -0.834
       11.43531       14.14386       18.35312        0.417
       11.11522       15.51739       18.90345        0.417
       22.06846       25.57367       25.30177       -0.834
       22.09398       25.36062       24.36893        0.417
       22.05533       24.72370       25.74179        0.417
        9.64390       13.06383        4.20565       -0.834
        9.50153       13.60217        3.42709        0.417
        9.01666       12.34598        4.11905        0.417
       14.48056        3.34711       17.11487       -0.834
       14.90830        3.70623       16.33750        0.417
       14.91582        3.77949       17.84960        0.417
       21.28369        8.54394       12.93139       -0.834
       22.16879        8.20390       13.06253        0.417