%Nproc=32
%Mem=120Gb
%chk=temp.chk
#p cam-b3lyp/6-31+G(d,p) nosymm charge Freq 

Calculation for S0 with freq for abs spect

0  1
 C         15.67001       17.52951       16.07990
 C         17.29263       15.73382       15.50664
 C         17.69386       15.59301       16.75284
 C         17.02629       16.30618       17.76575
 N         16.02668       17.20797       17.42578
 H         17.67125       15.12497       14.63812
 H         18.45954       14.96849       17.03646
 O         17.17321       16.07324       18.97937
 O         14.84122       18.33227       15.79511
 N         16.36929       16.69331       15.18925
 H         15.95504       16.77448       14.32139
 H         15.50575       17.72944       18.15479
 O         12.16983       16.27176       14.25805
 H         12.40456       15.53710       13.69112
 H         11.80725       16.92790       13.66285
 O         13.29232       16.81231       20.24256
 H         13.78373       16.25808       19.63628
 H         13.44466       17.70404       19.92974
 O         13.42549       17.55329       16.63463
 H         13.47724       16.86586       15.97056
 H         14.11082       18.17521       16.39016
 O         12.38797       19.70964       17.88206
 H         12.79688       18.88509       17.61911
 H         11.52160       19.68819       17.47564
 O         14.82090       19.47881       15.19722
 H         15.50797       19.33977       14.54542
 H         15.19956       20.10378       15.81549
 O         18.73632       20.15831       14.69627
 H         19.15250       19.38707       14.31130
 H         18.94018       20.10025       15.62970
 O         18.62431       15.39769       12.42848
 H         17.89276       15.84680       12.00495
 H         19.36898       15.55067       11.84685
 O         19.86076       17.80635       13.85236
 H         19.55536       16.95608       13.53613
 H         20.41527       17.59774       14.60417
 O         16.13704       15.85862       21.75974
 H         16.57171       16.46167       22.36276
 H         15.95833       16.38542       20.98079
 O         18.22556       20.34899       18.25008
 H         18.48753       19.66906       18.87081
 H         19.04270       20.61926       17.83120
 O         18.26739       13.26089       14.42413
 H         17.59493       13.91841       14.24608
 H         19.09527       13.72957       14.31839
 O         19.19846       17.26185       19.53856
 H         19.33223       16.94305       20.43114
 H         19.25097       16.47707       18.99303
 O         17.21373       13.08248       18.26445
 H         17.29384       13.44303       19.14753
 H         16.48088       12.46934       18.32114
 O         15.84540       15.72811       11.45928
 H         14.99552       16.13418       11.62970
 H         16.05115       15.25472       12.26539
 O         20.63524       17.31412       16.51172
 H         21.47091       17.05911       16.90268
 H         20.07113       16.55016       16.63162
 O         19.20864       15.22932       17.24514
 H         19.94633       14.64023       17.40332
 H         18.46299       14.79745       17.66195
 O         20.49703       20.00632       16.85131
 H         20.57836       19.08082       16.62095
 H         21.37200       20.36707       16.70806
 O         18.09541       11.43764       16.40358
 H         18.06865       12.02174       15.64573
 H         17.95111       12.01273       17.15503
 O         16.26213       19.01886       20.10557
 H         16.71325       19.26565       20.91292
 H         15.45892       19.53951       20.11071
 O         16.09779       21.36842       16.82754
 H         16.40119       22.25057       16.61308
 H         16.65078       21.09584       17.55976
 O         14.88730       12.63060       13.87095
 H         15.30158       13.46129       14.10455
 H         15.50621       12.21407       13.27121
 O         15.83124       18.68664       12.50491
 H         14.92465       18.74104       12.20264
 H         16.03716       19.57145       12.80648
 
       15.38561       21.53285        7.89493       -0.834
       15.18083       21.85693        8.77201        0.417
       15.43248       20.58208        7.99528        0.417
        1.91632       18.30035       17.04910       -0.834
        2.56272       18.66507       16.44463        0.417
        1.81342       18.97135       17.72394        0.417
       23.45507        8.25439        9.13800       -0.834
       24.33103        8.32294        8.75821        0.417
       23.08753        7.45948        8.75167        0.417
        5.45753       12.27715       14.06974       -0.834
        4.95491       11.50084       13.82285        0.417
        6.37203       12.01295       13.96915        0.417
       27.72425       17.67358       12.53026       -0.834
       28.21134       17.58140       13.34909        0.417
       28.36399       18.01994       11.90815        0.417
       23.78996       24.03724       13.41877       -0.834
       23.60926       23.64628       12.56394        0.417
       22.94551       24.02981       13.86940        0.417
       16.47651       12.22369        4.14451       -0.834
       16.15660       13.06015        3.80655        0.417
       16.97124       12.45579        4.93039        0.417
       11.75341       25.73543        6.31900       -0.834
       11.39082       24.87713        6.09973        0.417
       12.30613       25.96074        5.57068        0.417
       25.22250        3.59729       15.81564       -0.834
       25.13404        4.40974       15.31730        0.417
       25.71289        3.01316       15.23724        0.417
       11.33355       22.82756        5.65790       -0.834
       11.05577       22.86467        4.74264        0.417
       12.24679       22.54329        5.62018        0.417
        2.46053       20.63273       18.47043       -0.834
        2.44817       21.54877       18.19302        0.417
        2.08854       20.64400       19.35232        0.417
       12.58995       30.39523       15.24554       -0.834
       12.54657       29.52987       15.65235        0.417
       11.95546       30.92131       15.73226        0.417
       24.17211       13.27341       10.49415       -0.834
       23.68075       13.97197       10.92637        0.417
       23.67576       13.08881        9.69678        0.417
       11.45313       10.20187       16.27400       -0.834
       10.79553        9.51861       16.40426        0.417
       12.03428        9.85018       15.59960        0.417
       16.88343       21.96537       24.50209       -0.834
       16.33996       22.31537       25.20805        0.417
       17.36792       22.72294       24.17409        0.417
       20.10572       28.41074       10.69770       -0.834
       20.10570       28.54284       11.64574        0.417
       19.25074       28.02377       10.50930        0.417
       13.12363        9.52010        4.84180       -0.834
       13.60102       10.30355        4.56880        0.417
       13.22446        8.91066        4.11060        0.417
       20.28977       21.09155       10.42294       -0.834
       20.31171       21.38591        9.51239        0.417
       19.36679       21.14613       10.67063        0.417
       23.77407        8.15289       17.93345       -0.834
       23.34529        8.55626       18.68821        0.417
       23.46364        7.24743       17.93665        0.417
       18.51034       18.17938       23.32654       -0.834
       19.25184       17.96770       22.75943        0.417
       18.79587       17.91873       24.20220        0.417
       15.31405       18.82393        8.36452       -0.834
       16.00379       18.62559        8.99788        0.417
       15.22112       18.02109        7.85162        0.417
       20.42354       20.69110       24.98638       -0.834
       19.82494       20.99575       25.66836        0.417
       20.73686       19.84388       25.30304        0.417
        9.29433        4.81870       23.93281       -0.834
        9.64452        5.20024       23.12781        0.417
       10.01749        4.30165       24.28770        0.417
       23.42296       16.51482       26.45746       -0.834
       24.37140       16.42600       26.36362        0.417
       23.19597       15.92105       27.17310        0.417
       26.69705        7.25715       17.44629       -0.834
       27.10367        8.03741       17.82324        0.417
       25.75661        7.40384       17.54771        0.417
       22.41156       11.78017       23.12584       -0.834
       21.75590       12.45264       22.94108        0.417
       23.21414       12.11006       22.72177        0.417
       26.19867        8.26145       12.66096       -0.834
       25.55505        7.82069       12.10623        0.417
       25.67435        8.77682       13.27391        0.417
       20.14822       16.15527       21.83640       -0.834
       20.20801       15.21617       22.01172        0.417
       21.05514       16.43397       21.70968        0.417
       25.49170       19.28785       15.16076       -0.834
       26.26894       19.17245       15.70740        0.417
       25.10996       18.41228       15.09847        0.417
       17.09886       11.18975       12.80973       -0.834
       17.18736       11.18551       11.85664        0.417
       17.85888       11.68257       13.11914        0.417
       15.61031        4.00366       15.55467       -0.834
       14.80621        4.19375       15.07143        0.417
       15.43446        4.31158       16.44377        0.417
       13.67247       11.65919       24.33766       -0.834
       14.44527       12.18590       24.13374        0.417
       13.57309       11.07718       23.58426        0.417
        3.79203       19.18873       22.26479       -0.834
        4.63793       18.79893       22.04391        0.417
        3.81334       19.28476       23.21693        0.417
       20.81590       13.26460       17.93713       -0.834
       21.53107       13.41586       18.55509        0.417
       21.24507       12.92489       17.15187        0.417
       27.66539        9.43779       21.23841       -0.834
       28.26749        8.95005       21.80039        0.417
       26.80286        9.29156       21.62685        0.417
       24.12758       22.92005       10.76358       -0.834
       24.73622       22.20947       10.56142        0.417
       23.84685       23.24613        9.90853        0.417
        3.72661       18.55010        8.28616       -0.834
        2.80149       18.79556        8.29738        0.417
        3.98092       18.53049        9.20876        0.417
       18.71113       24.69913       27.22194       -0.834
       18.78221       25.39520       26.56875        0.417
       19.58001       24.29797       27.24068        0.417
        5.01399        9.03985        9.03622       -0.834
        5.21809        8.84903        8.12071        0.417
        5.48804        9.84994        9.22398        0.417
       25.99558       24.90962       11.16348       -0.834
       26.09450       24.64129       10.25000        0.417
       25.44736       24.22978       11.55528        0.417
       12.10320       15.75990        6.27154       -0.834
       11.58985       15.52571        7.04475        0.417
       12.13345       16.71654        6.28428        0.417
       22.30563       13.05143        8.53948       -0.834
       22.41383       13.38416        7.64852        0.417
       22.15933       12.11199        8.42871        0.417
       27.46960       23.73705       22.17243       -0.834
       26.63656       23.68375       22.64086        0.417
       27.30317       23.30145       21.33650        0.417
        9.22219       18.37899        5.30653       -0.834
       10.09867       18.74622        5.42125        0.417
        9.12751       17.75466        6.02591        0.417
        8.46909        5.66367       17.07501       -0.834
        7.61407        6.06932       17.21859        0.417
        8.43293        4.84567       17.57080        0.417
       24.40158       22.72126       22.52032       -0.834
       24.63570       22.31959       21.68361        0.417
       23.48036       22.49384       22.64627        0.417
        9.40661       17.02982        7.73820       -0.834
        9.82036       16.18063        7.89287        0.417
        8.59880       17.00011        8.25082        0.417
       19.59103       13.52197       24.69169       -0.834
       19.73088       13.26111       23.78140        0.417
       18.78439       13.07502       24.94820        0.417
       14.26512        9.38608       22.64502       -0.834
       14.35906        8.43563       22.58133        0.417
       13.67499        9.61751       21.92779        0.417
       11.36412       22.13911       21.12882       -0.834
       10.76909       22.30779       20.39826        0.417
       12.03707       22.81540       21.05129        0.417
       12.48040       19.52309       13.57258       -0.834
       13.25672       19.58644       14.12894        0.417
       12.81797       19.24899       12.71986        0.417
       21.19183       23.53518       28.36080       -0.834
       20.60099       22.93251       28.81239        0.417
       21.98879       23.02554       28.21469        0.417
       16.59550       21.07022       13.51713       -0.834
       16.32070       21.97590       13.66012        0.417
       17.44952       21.00816       13.94494        0.417
       26.19276       16.78543       27.72508       -0.834
       26.70603       16.60113       26.93843        0.417
       26.38087       16.05266       28.31151        0.417
       22.28929       15.98378        4.54503       -0.834
       23.08250       16.27398        4.09464        0.417
       21.59177       16.52517        4.17545        0.417
        5.34536       13.99786       20.80401       -0.834
        5.29839       13.56426       21.65607        0.417
        5.14592       13.30722       20.17197        0.417
       26.20377       10.89847       11.10047       -0.834
       26.33027       10.46406       11.94398        0.417
       25.69869       11.68446       11.30866        0.417
       13.34931       15.88423       23.33799       -0.834
       12.86947       15.57811       22.56840        0.417
       14.02407       16.46421       22.98508        0.417
       24.68092       28.94548       18.35179       -0.834
       25.21940       28.58990       17.64480        0.417
       25.28718       29.05221       19.08479        0.417
       11.49634       29.77519       21.04659       -0.834
       12.22016       30.40126       21.06515        0.417
       11.55317       29.36820       20.18209        0.417
       13.83916        4.39751       13.42061       -0.834
       13.21558        4.33387       12.69720        0.417
       14.54606        4.94604       13.08055        0.417
       12.75242       13.92221       12.76422       -0.834
       11.98790       13.36627       12.91478        0.417
       13.48283       13.43382       13.14398        0.417
       24.39355       16.70339       14.77539       -0.834
       24.42299       16.07091       14.05752        0.417
       25.16796       16.50507       15.30188        0.417
       20.43031       22.22961        7.72479       -0.834
       19.52492       22.27348        7.41723        0.417
       20.91052       21.82795        7.00068        0.417
       25.79627       24.43683        8.30394       -0.834
       24.94728       24.12060        7.99499        0.417
       26.07087       25.07207        7.64266        0.417
       21.10295       24.95104       25.38169       -0.834
       20.60904       24.54996       24.66656        0.417
       20.99428       25.89286       25.24974        0.417
       14.82749        4.57297       20.95755       -0.834
       14.89233        5.50011       21.18656        0.417
       15.60478        4.17421       21.34875        0.417
       10.68634       19.04458       15.82923       -0.834
       11.23295       18.37190       16.23537        0.417
       10.90567       19.00233       14.89846        0.417
       21.36323       19.25534       20.03065       -0.834
       20.64530       18.68100       19.76429        0.417
       21.61177       18.94141       20.90008        0.417
        9.37291       24.20106       14.81771       -0.834
        9.81333       23.47819       15.26461        0.417
        9.28279       24.87837       15.48806        0.417
       10.00817       21.93973        7.81066       -0.834
       10.32113       21.92262        6.90621        0.417
       10.05895       21.02855        8.09947        0.417
       11.57803       14.68433       31.08933       -0.834
       11.91408       14.55291       30.20275        0.417
       12.17853       14.19202       31.64902        0.417
       25.08388       19.11998       25.84822       -0.834
       25.26267       18.57442       26.61414        0.417
       24.83868       19.97088       26.21163        0.417
       22.48785       22.25044       26.18848       -0.834
       22.19609       23.12502       25.93117        0.417
       21.89321       21.65514       25.73213        0.417
        4.71387       12.77955       23.24289       -0.834
        5.14571       12.45684       24.03384        0.417
        4.14914       12.05787       22.96635        0.417
       15.21993       14.89455       31.35818       -0.834
       15.85846       15.51533       31.00726        0.417
       14.46130       14.97826       30.78051        0.417
        8.18643        9.95729       22.07933       -0.834
        8.16040        9.90287       23.03463        0.417
        8.13406       10.89428       21.89081        0.417
        7.25774       18.76373       14.68874       -0.834
        7.57144       19.59020       15.05586        0.417
        7.44811       18.11327       15.36469        0.417
       11.11652        8.43812       27.13451       -0.834
       11.93990        8.83163       26.84568        0.417
       11.38262        7.69862       27.68092        0.417
       24.86128       12.85695       27.91218       -0.834
       24.59473       13.20301       28.76389        0.417
       24.31228       12.08321       27.78503        0.417
       15.08029       18.14533       29.54562       -0.834
       15.14799       18.72349       28.78576        0.417
       14.18080       17.81902       29.51952        0.417
       21.82886       21.90574       22.98785       -0.834
       21.06579       22.05767       22.43030        0.417
       21.46280       21.75051       23.85856        0.417
       10.38598        5.30586       15.24423       -0.834
       10.25170        5.90361       14.50877        0.417
        9.52314        5.22868       15.65138        0.417
       15.51116       16.82338        6.26982       -0.834
       16.22936       16.29401        5.92314        0.417
       15.10858       17.21782        5.49614        0.417
       19.47937       12.59875        6.59516       -0.834
       19.23672       11.67533        6.66336        0.417
       20.14371       12.62207        5.90643        0.417
       16.56048       27.22453       22.60702       -0.834
       17.04769       27.33579       23.42340        0.417
       16.42303       28.11583       22.28620        0.417
       12.91402       24.30573       21.11438       -0.834
       13.25889       24.88194       21.79650        0.417
       13.68705       23.87180       20.75334        0.417
       10.31688       24.21674       17.60884       -0.834
       11.23163       24.33760       17.86348        0.417
       10.06026       23.39146       18.02031        0.417
        6.66360       27.39379       11.99470       -0.834
        7.51775       27.82215       12.05109        0.417
        6.78729       26.55294       12.43504        0.417
       20.50402       30.45867       20.76840       -0.834
       19.92756       30.04063       21.40807        0.417
       20.91928       29.72989       20.30723        0.417
       20.20357       16.93967        2.97780       -0.834
       20.11410       17.15741        2.05000        0.417
       19.66640       17.59028        3.42989        0.417
       22.76441       11.24448       27.31127       -0.834
       23.06387       10.47860       27.80116        0.417
       21.81343       11.14469       27.26766        0.417
       22.46343       12.66264       15.88437       -0.834
       22.25080       13.03868       15.03020        0.417
       22.60197       11.73188       15.70906        0.417
       19.75320       17.50172       30.69735       -0.834
       19.97912       17.04037       29.88967        0.417
       20.54405       17.99135       30.92330        0.417
       12.76414        8.71607        7.61587       -0.834
       12.98422        9.17226        6.80363        0.417
       11.88662        8.36525        7.46386        0.417
       12.31220       27.50830       15.52879       -0.834
       11.61840       27.69834       14.89732        0.417
       12.01131       26.72362       15.98702        0.417
       15.75556       14.44600       26.12335       -0.834
       16.54487       14.53628       26.65727        0.417
       15.19533       15.17168       26.39861        0.417
       11.33044       19.27684       21.69506       -0.834
       10.44518       19.20807       22.05256        0.417
       11.37149       20.15811       21.32369        0.417
       14.76641       21.65253       11.18773       -0.834
       14.11331       21.53495       11.87756        0.417
       14.59345       22.52744       10.84011        0.417
       25.13531       20.70839       20.79432       -0.834
       26.06699       20.92225       20.84413        0.417
       24.94052       20.70107       19.85718        0.417
       12.03026       27.50907       11.74188       -0.834
       11.76696       26.65538       12.08556        0.417
       11.43491       28.13049       12.16096        0.417
       27.51341       16.55234       25.67438       -0.834
       28.19727       15.96275       25.35664        0.417
       27.61954       17.34694       25.15134        0.417
       15.81844        6.96938       26.34451       -0.834
       16.51339        7.30976       26.90791        0.417
       16.20089        6.19419       25.93336        0.417
        4.56285       16.37539       17.04634       -0.834
        4.24684       15.50409       16.80720        0.417
        4.19965       16.95464       16.37643        0.417
       10.95332        8.12500       24.36665       -0.834
       10.19145        8.69961       24.29182        0.417
       10.96104        7.85505       25.28497        0.417
       27.89721       13.90076       18.05690       -0.834
       28.81932       14.15755       18.06085        0.417
       27.64319       13.90415       18.97977        0.417
        9.09098       17.92319       23.11180       -0.834
        8.70113       17.22439       22.58651        0.417
        8.35253       18.48226       23.35345        0.417
       17.39954       22.35414       20.34903       -0.834
       17.14792       21.63429       20.92760        0.417
       18.02513       21.96395       19.73860        0.417
       13.74221       14.19465       28.77725       -0.834
       13.49616       13.41997       29.28279        0.417
       14.33197       13.86226       28.10055        0.417
        8.78822       19.84391       19.00393       -0.834
        8.22732       19.15852       19.36704        0.417
        9.01552       19.52947       18.12889        0.417
       21.28511       26.73004       21.65952       -0.834
       21.64182       26.40427       20.83317        0.417
       20.48136       26.22661       21.78902        0.417
       20.99994       27.60369       16.63270       -0.834
       21.30347       27.95056       17.47161        0.417
       20.10492       27.93205       16.54694        0.417
       16.82285       24.71818        7.67336       -0.834
       15.95382       25.11126        7.59266        0.417
       17.05321       24.45988        6.78090        0.417
       23.28891       11.94602        5.35084       -0.834
       23.20367       12.83994        5.68232        0.417
       23.72533       12.04445        4.50463        0.417
       19.67368       31.57934       18.10616       -0.834
       19.69161       31.31595       19.02624        0.417
       19.02291       31.00374       17.70440        0.417
       20.39867        8.81095       15.32376       -0.834
       19.44275        8.76298       15.33567        0.417
       20.65464        8.30715       14.55118        0.417
       18.21520       28.32712       15.89428       -0.834
       17.56745       28.22913       16.59217        0.417
       17.93621       29.10777       15.41578        0.417
       24.90808        9.17879       21.94327       -0.834
       24.81051        8.30213       21.57154        0.417
       24.40947        9.74578       21.35493        0.417
       17.48161       15.00606        5.20042       -0.834
       16.94413       15.09750        4.41367        0.417
       18.38267       15.07480        4.88481        0.417
       28.54894       26.26133       15.68680       -0.834
       29.37614       25.79637       15.81238        0.417
       28.11828       25.79560       14.96995        0.417
       28.10730        9.31866       18.59055       -0.834
       28.08844        9.43276       19.54074        0.417
       28.84120        8.72424       18.43473        0.417
       16.41974       30.18049       11.81904       -0.834
       16.61263       31.03506       12.20473        0.417
       15.55372       29.95411       12.15814        0.417
       18.18292       25.66802       14.68221       -0.834
       18.16052       26.59841       14.90607        0.417
       17.29050       25.46753       14.40002        0.417
       23.71529       19.22209       22.64838       -0.834
       24.29345       19.65082       22.01739        0.417
       23.49179       19.91015       23.27516        0.417
       31.53418       16.61585       16.48250       -0.834
       32.09674       17.36987       16.30580        0.417
       30.86933       16.64601       15.79453        0.417
       29.76158       18.89184       11.08667       -0.834
       29.45504       19.79455       11.00077        0.417
       30.58327       18.96263       11.57252        0.417
       21.79593       21.24900       13.74065       -0.834
       21.71724       21.67607       12.88762        0.417
       20.89227       21.09582       14.01662        0.417
       25.14503       14.41580       25.18383       -0.834
       25.84214       14.50119       25.83420        0.417
       25.02237       13.47154       25.08607        0.417
       21.24208       18.16510       25.84330       -0.834
       20.67590       17.42908       25.61098        0.417
       22.13087       17.81920       25.76178        0.417
       12.61606        6.56111       22.68248       -0.834
       12.08811        6.94902       23.38036        0.417
       11.99535        6.40438       21.97087        0.417
       13.14129       10.55396       20.32228       -0.834
       12.62982        9.83490       19.95135        0.417
       12.81111       11.33623       19.88039        0.417
       21.48024       13.98975       13.37998       -0.834
       21.31168       14.42079       12.54211        0.417
       21.43580       13.05434       13.18186        0.417
       12.24596       22.05212       12.39032       -0.834
       11.72115       21.63421       11.70757        0.417
       11.73961       21.92654       13.19287        0.417
       28.38306       26.31332       18.74981       -0.834
       29.13398       26.79266       18.39967        0.417
       27.80461       26.19047       17.99713        0.417
       16.60937       11.40613       10.17900       -0.834
       17.21249       11.94491        9.66696        0.417
       15.75958       11.83494       10.07788        0.417
        8.13578       16.05524       26.71852       -0.834
        7.86074       16.10628       27.63394        0.417
        8.69370       15.27848       26.67852        0.417
       24.80429        6.51894       21.02451       -0.834
       25.64461        6.06377       21.07845        0.417
       24.16350        5.82321       20.87761        0.417
        9.14048       10.46230       27.20586       -0.834
        9.89839        9.89319       27.33971        0.417
        9.39615       11.29817       27.59596        0.417
       22.65753       13.75146       20.15975       -0.834
       22.69629       13.71243       21.11537        0.417
       22.47937       14.67138       19.96417        0.417
       14.61403        5.25217       24.33917       -0.834
       13.78732        5.47145       23.90942        0.417
       14.49680        5.53810       25.24511        0.417
       14.74040       28.03036       25.95219       -0.834
       15.46140       28.12006       26.57537        0.417
       14.72642       28.86284       25.47994        0.417
        7.00683       11.03055        7.31653       -0.834
        7.54420       10.80041        6.55858        0.417
        7.22271       11.94591        7.49473        0.417
       16.12745       24.98611       24.97986       -0.834
       16.60719       25.80067       25.13011        0.417
       15.50001       25.20094       24.28965        0.417
       22.12689       16.52681        8.34711       -0.834
       21.59352       17.02561        7.72829        0.417
       21.96447       15.61117        8.12026        0.417
       18.42464        5.18007       10.71371       -0.834
       18.81981        4.88312       11.53340        0.417
       17.72175        5.76999       10.98604        0.417
       31.15142       15.14507       12.48265       -0.834
       30.22995       15.40400       12.47412        0.417
       31.39480       15.09359       11.55834        0.417
       18.94170        9.40606       24.46210       -0.834
       19.21276        9.91389       25.22687        0.417