%Nproc=32
%Mem=120Gb
%chk=temp.chk
#p cam-b3lyp/6-31+G(d,p) nosymm charge Freq 

Calculation for S0 with freq for abs spect

0  1
 C         15.67001       17.52951       16.07990
 C         17.29263       15.73382       15.50664
 C         17.69386       15.59301       16.75284
 C         17.02629       16.30618       17.76575
 N         16.02668       17.20797       17.42578
 H         17.67125       15.12497       14.63812
 H         18.45954       14.96849       17.03646
 O         17.17321       16.07324       18.97937
 O         14.84122       18.33227       15.79511
 N         16.36929       16.69331       15.18925
 H         15.95504       16.77448       14.32139
 H         15.50575       17.72944       18.15479
 O         18.88645       19.20418       20.10400
 H         18.39925       18.55010       20.60504
 H         19.74904       18.81109       19.97112
 O         16.00655       12.49740       17.81737
 H         15.71974       12.56500       18.72809
 H         16.95597       12.38863       17.87221
 O         20.50222       15.54895       14.62539
 H         20.97875       15.66103       15.44794
 H         19.98553       14.75348       14.75384
 O         15.22710       18.14233       20.80329
 H         14.44756       17.67269       21.09990
 H         15.95752       17.67533       21.20904
 O         18.53963       21.23373       18.24299
 H         18.79054       20.56739       18.88273
 H         18.13428       20.74087       17.52954
 O         18.28374       15.96837       12.86167
 H         17.96868       15.25976       13.42278
 H         19.02658       16.33936       13.33789
 O         18.83748       20.21195       13.77511
 H         18.17702       19.61010       13.43188
 H         18.72715       20.17291       14.72512
 O         15.42955       12.77716       14.37001
 H         14.88846       12.76271       13.58055
 H         14.80151       12.75120       15.09191
 O         17.73832       17.04914       21.82395
 H         17.72456       16.18103       21.42095
 H         18.04854       16.89463       22.71621
 O         14.94258       21.45666       17.59165
 H         14.68359       20.53858       17.67099
 H         14.86681       21.80502       18.47998
 O         17.89632       13.49292       14.45744
 H         16.97839       13.22318       14.42798
 H         18.25431       13.04272       15.22255
 O         16.99482       18.56853       12.45796
 H         16.22973       18.20888       12.00904
 H         17.63886       17.86066       12.43914
 O         20.87082       16.40104       17.47593
 H         21.59160       16.93446       17.81085
 H         20.76530       15.70546       18.12499
 O         14.42743       18.71430       18.11330
 H         14.90550       18.01339       17.67012
 H         14.62133       18.58710       19.04198
 O         21.64326       18.76098       15.09767
 H         20.90532       18.33864       15.53733
 H         21.24499       19.45785       14.57615
 O         13.39134       14.17949       15.84545
 H         12.82893       14.04110       16.60753
 H         12.79258       14.16146       15.09886
 O         19.49033       13.76803       19.83901
 H         18.99783       13.76276       20.65977
 H         18.86655       14.08720       19.18689
 
       24.36321       22.95557       23.62717       -0.834
       24.05162       22.24492       23.06670        0.417
       25.31392       22.84612       23.64726        0.417
       21.26346       21.33906       10.41384       -0.834
       21.14840       21.93186        9.67115        0.417
       20.45455       20.82800       10.44055        0.417
        5.49259       16.84148       18.50521       -0.834
        5.86516       15.97464       18.66650        0.417
        5.56051       16.95938       17.55773        0.417
        6.57686       20.99920       25.36433       -0.834
        7.08733       21.44254       24.68676        0.417
        5.92875       21.64768       25.63939        0.417
       26.33488       27.87713       16.59706       -0.834
       25.46845       27.47095       16.62099        0.417
       26.73481       27.63884       17.43344        0.417
       17.75632       27.68772       27.62795       -0.834
       18.44034       28.25776       27.27666        0.417
       18.10505       26.80234       27.52423        0.417
       16.98928        9.15912        5.62092       -0.834
       16.77694        8.42216        6.19366        0.417
       17.94579        9.16777        5.58558        0.417
       28.17473        9.11150       11.13599       -0.834
       28.89005        8.92598       10.52761        0.417
       27.66849        9.80188       10.70783        0.417
       17.00920       26.74839       13.50474       -0.834
       16.92678       26.14141       14.24027        0.417
       17.91284       27.06064       13.55135        0.417
        5.28906       17.24656       15.81342       -0.834
        4.85113       18.07677       16.00103        0.417
        4.81479       16.88936       15.06261        0.417
       22.84269       26.06150       18.09067       -0.834
       23.33973       25.24412       18.12346        0.417
       23.19108       26.52381       17.32836        0.417
       15.64113       32.28076       16.87242       -0.834
       15.22477       32.58366       17.67937        0.417
       15.53526       31.32960       16.89016        0.417
       14.86177       18.46910        3.64918       -0.834
       14.12043       18.98002        3.97414        0.417
       15.62758       19.01244        3.83505        0.417
       12.15685       18.05311        5.85324       -0.834
       11.42165       17.54636        6.19810        0.417
       11.75557       18.67663        5.24790        0.417
       10.48676       11.12336       13.19960       -0.834
        9.54344       11.21204       13.33563        0.417
       10.82730       10.84919       14.05112        0.417
       20.09306        4.27298       21.92008       -0.834
       19.55776        4.05946       21.15582        0.417
       20.37016        5.17745       21.77389        0.417
        7.90708       25.33100       19.20661       -0.834
        8.21276       25.74646       18.40027        0.417
        8.59100       25.52116       19.84874        0.417
       26.97437       10.45687        8.73886       -0.834
       26.73120        9.74955        8.14153        0.417
       27.47018       11.06972        8.19588        0.417
       28.33951        8.87128       22.98619       -0.834
       28.21402        9.26721       22.12380        0.417
       29.07749        9.34923       23.36460        0.417
       23.02276       14.14469       13.19028       -0.834
       23.03028       15.10110       13.15212        0.417
       22.55347       13.94047       13.99916        0.417
       10.23065       27.59463       22.60900       -0.834
        9.98435       27.96475       23.45669        0.417
        9.50616       27.01166       22.38202        0.417
       16.86189       23.67724       26.23101       -0.834
       16.60237       24.58405       26.06794        0.417
       17.69288       23.57818       25.76639        0.417
       20.68269       22.13834       14.79958       -0.834
       20.45729       22.37033       13.89869        0.417
       19.83863       22.02801       15.23733        0.417
       14.52123       23.26124       20.03982       -0.834
       13.94916       23.73891       20.64048        0.417
       14.39220       23.68979       19.19369        0.417
       24.31463       20.50944       13.75996       -0.834
       23.94353       20.20651       12.93125        0.417
       24.63125       19.71315       14.18646        0.417
       24.91720       26.62386       21.62221       -0.834
       25.43056       26.25172       22.33929        0.417
       24.19230       26.01034       21.50243        0.417
       24.70368       12.99599       25.65785       -0.834
       25.28306       13.60854       26.11098        0.417
       24.53166       12.30806       26.30081        0.417
       27.89026       16.13261       21.52457       -0.834
       28.48934       15.59580       21.00576        0.417
       28.42080       16.87625       21.81052        0.417
       18.29839        3.24475       11.99984       -0.834
       18.56995        4.08268       12.37448        0.417
       19.11121        2.84629       11.68872        0.417
       18.62937       12.66568       26.57581       -0.834
       18.68193       13.31908       27.27334        0.417
       19.49023       12.69082       26.15806        0.417
       17.92841       18.44867       27.48281       -0.834
       18.70344       18.44218       26.92110        0.417
       17.50063       19.28341       27.29189        0.417
       24.45025        7.81517       26.16296       -0.834
       23.74275        7.18810       26.01309        0.417
       24.64217        8.17221       25.29583        0.417
       11.83318       21.03825       23.52188       -0.834
       12.20112       20.15838       23.60360        0.417
       11.57120       21.10449       22.60362        0.417
        5.82409       26.64844       20.32506       -0.834
        6.48533       26.04956       19.97816        0.417
        5.59213       26.28169       21.17824        0.417
       30.85046       20.65085       18.72783       -0.834
       30.76863       21.58973       18.56037        0.417
       31.54273       20.36058       18.13391        0.417
        5.22131       10.02804        9.23252       -0.834
        4.48164        9.90385        9.82724        0.417
        5.94391       10.29492        9.80073        0.417
       20.81792        6.42960       11.99319       -0.834
       20.14845        6.50166       11.31286        0.417
       21.62356        6.72556       11.56941        0.417
       18.50979       21.91221       30.04562       -0.834
       18.75814       21.68743       30.94230        0.417
       19.33639       21.92247       29.56307        0.417
       26.60728       14.99372        7.62435       -0.834
       25.92651       14.92155        8.29336        0.417
       26.52419       15.88784        7.29288        0.417
       16.95827       19.20338        7.99496       -0.834
       16.17404       19.41320        7.48781        0.417
       17.60490       19.85178        7.71627        0.417
        5.77839       16.69593        7.67121       -0.834
        5.76642       17.63609        7.85063        0.417
        6.39110       16.59849        6.94230        0.417
       20.88716       17.93061       11.24385       -0.834
       21.27835       17.45622       10.51026        0.417
       19.98064       18.08140       10.97608        0.417
       13.49393       22.02800       26.50758       -0.834
       12.96714       22.21503       25.73057        0.417
       13.12826       21.21462       26.85535        0.417
       14.91898        5.40491       23.95227       -0.834
       15.59465        5.17364       24.58962        0.417
       14.92312        4.68184       23.32508        0.417
       29.68456       18.11640       22.69555       -0.834
       30.41054       18.32504       22.10763        0.417
       29.10645       18.87745       22.64249        0.417
       13.95230       27.43882       24.06563       -0.834
       13.64725       26.53158       24.07434        0.417
       14.13352       27.62224       23.14381        0.417
       21.34626       16.76053       23.53499       -0.834
       22.01258       16.08746       23.39633        0.417
       21.84174       17.57536       23.61740        0.417
       22.14148        7.24963       19.06113       -0.834
       21.73041        7.01667       19.89359        0.417
       21.40980        7.47790       18.48775        0.417
       15.40392        3.73489       21.69448       -0.834
       15.41119        3.42607       20.78849        0.417
       16.00185        3.14521       22.15382        0.417
       26.46112       13.85732       12.06200       -0.834
       26.91462       13.06900       12.36053        0.417
       25.91219       13.55839       11.33705        0.417
       13.10177       29.77078        9.07229       -0.834
       12.58202       29.33056        8.39976        0.417
       13.85350       29.19447        9.21014        0.417
        3.05338       21.26887       11.14456       -0.834
        3.55281       20.82297       10.46047        0.417
        3.70522       21.78271       11.62131        0.417
       14.18766       24.45413       17.50530       -0.834
       14.71090       24.72957       16.75255        0.417
       13.28496       24.46546       17.18713        0.417
       19.66739       28.86047        8.74598       -0.834
       19.80634       29.07167        9.66919        0.417
       20.49063       28.46132        8.46457        0.417
       22.89470       25.38586       24.04227       -0.834
       23.20964       24.49363       23.89747        0.417
       23.68876       25.91990       24.06506        0.417
       27.47331       19.03743       10.91150       -0.834
       28.35339       19.23507       11.23187        0.417
       27.11774       18.42092       11.55159        0.417
       16.95027       18.20155       31.97497       -0.834
       16.32548       18.47799       31.30457        0.417
       16.94029       18.90968       32.61893        0.417
       26.00121       16.84224        4.91765       -0.834
       26.88031       16.52103        5.11821        0.417
       25.44479       16.06489        4.96620        0.417
       22.77294       10.01976       15.18567       -0.834
       22.09380        9.51275       14.74077        0.417
       23.59587        9.63347       14.88602        0.417
       21.40170        7.46956        8.13970       -0.834
       21.96549        6.76449        7.82151        0.417
       21.77152        8.26446        7.75551        0.417
       13.27400       16.71240       12.91256       -0.834
       13.47748       17.58931       12.58720        0.417
       13.91262       16.14301       12.48340        0.417
       14.61237       20.65130       21.98319       -0.834
       13.70872       20.90279       21.79242        0.417
       14.73496       19.82450       21.51670        0.417
        5.09447       11.86663       17.37148       -0.834
        4.53929       12.59204       17.65747        0.417
        4.50225       11.28433       16.89563        0.417
       24.19616       19.50668       19.80760       -0.834
       24.14090       19.89293       18.93354        0.417
       24.76551       18.74508       19.69786        0.417
       18.62439       23.49627       16.58416       -0.834
       18.80300       22.93490       17.33864        0.417
       17.96751       23.01734       16.07883        0.417
       16.72732       16.21612       28.75602       -0.834
       17.27663       16.95639       28.49814        0.417
       15.89771       16.36317       28.30174        0.417
       19.00114       20.41337       22.82482       -0.834
       18.24139       20.80615       23.25462        0.417
       18.64567       20.00439       22.03576        0.417
       23.05684        7.20227       10.59109       -0.834
       23.47654        6.39853       10.28436        0.417
       22.61071        7.54983        9.81882        0.417
       11.90688       10.96315       15.39253       -0.834
       12.47098       11.61439       14.97552        0.417
       12.45963       10.56047       16.06226        0.417
        8.72594       15.39715       19.22941       -0.834
        8.47966       15.12770       20.11427        0.417
        8.05945       15.00539       18.66501        0.417
        4.96593        8.26717       18.65627       -0.834
        5.49969        7.62744       18.18502        0.417
        4.54885        8.78531       17.96793        0.417
       20.53888       26.54857       25.08154       -0.834
       21.17825       26.24268       24.43821        0.417
       20.77944       27.46070       25.24399        0.417
        8.24680       10.17210        9.92720       -0.834
        8.29416        9.82580        9.03609        0.417
        8.61478        9.47814       10.47423        0.417
       29.48735        9.03938       13.39849       -0.834
       29.08940        9.29176       12.56532        0.417
       28.90058        8.37080       13.75195        0.417
        8.28248       25.80305       22.11952       -0.834
        7.42865       25.69370       22.53816        0.417
        8.72862       24.96837       22.26271        0.417
       14.11134       14.25674       22.82975       -0.834
       13.61635       13.49099       23.12103        0.417
       14.58797       14.54477       23.60827        0.417
        5.07624       22.98073       22.37259       -0.834
        4.69035       22.24793       22.85251        0.417
        4.66425       22.94578       21.50930        0.417
       28.82290       13.72855       20.13925       -0.834
       29.75724       13.52877       20.08161        0.417
       28.43580       13.28586       19.38400        0.417
       13.53455       16.08115        7.61284       -0.834
       13.80074       16.21414        6.70306        0.417
       13.55782       15.13185        7.73337        0.417
       21.75648       12.60089       15.35055       -0.834
       21.39924       12.69812       16.23325        0.417
       22.15697       11.73151       15.34815        0.417
       28.30195       18.60349        7.52837       -0.834
       28.82073       19.40789        7.52222        0.417
       28.23858       18.36586        8.45343        0.417
       15.38837       26.58505       16.00194       -0.834
       15.68046       27.07380       16.77137        0.417
       15.56539       27.16958       15.26489        0.417
        9.82994       20.98383       26.73810       -0.834
        9.59424       20.38069       26.03318        0.417
       10.69376       20.68954       27.02694        0.417
       19.58423       21.99101        4.15999       -0.834
       19.03495       22.54014        4.71944        0.417
       19.71640       21.18934        4.66603        0.417
        9.00247       18.10721       17.88360       -0.834
        9.84323       18.49431       18.12754        0.417
        8.97348       17.27704       18.35922        0.417
       12.42077       13.72610       18.43704       -0.834
       11.83548       12.99281       18.62665        0.417
       13.25188       13.48121       18.84388        0.417
        6.76828       23.76800        8.15833       -0.834
        6.98778       23.84150        7.22954        0.417
        5.81159       23.74322        8.17760        0.417
       20.04794       18.88897       25.70533       -0.834
       20.50424       19.61689       26.12739        0.417
       19.72860       19.25245       24.87941        0.417
       28.40173       24.68024       17.91386       -0.834
       28.05848       25.49298       18.28516        0.417
       27.62660       24.21167       17.60426        0.417
       31.66139       18.61483       16.40067       -0.834
       32.59856       18.72398       16.23934        0.417
       31.50744       17.67601       16.29509        0.417
       17.11902       23.14531       21.08382       -0.834
       16.35493       23.40048       20.56682        0.417
       17.10998       22.18826       21.06914        0.417
       10.27254       17.45191       12.80032       -0.834
       10.33550       18.37252       13.05476        0.417
        9.99390       17.47446       11.88485        0.417
       25.69028       23.36378       17.05694       -0.834
       25.33390       23.47023       17.93893        0.417
       24.97253       22.98060       16.55270        0.417
       14.34524        9.66110        8.95870       -0.834
       14.34836       10.27438        8.22378        0.417
       14.64936       10.17854        9.70435        0.417
       16.62675       29.79593       12.74441       -0.834
       16.65454       30.43881       13.45304        0.417
       16.06468       29.09620       13.07709        0.417
        9.46843       23.75260       14.88590       -0.834
        9.07106       24.52892       14.49135        0.417
       10.23840       23.57608       14.34533        0.417
       19.87602       21.55634       27.16921       -0.834
       20.60440       21.89290       27.69116        0.417
       19.58510       22.30682       26.65116        0.417
       17.53817       12.03480        6.95914       -0.834
       17.68887       12.17470        6.02429        0.417
       16.68032       11.61246        7.00338        0.417
       24.46985        7.39971       14.54140       -0.834
       24.99191        6.93082       15.19241        0.417
       24.81570        7.10499       13.69892        0.417
       14.27563        8.40840       27.20939       -0.834
       15.14710        8.14290       27.50312        0.417
       13.83822        7.58760       26.98315        0.417
        8.67885       23.25092       28.08923       -0.834
        8.89722       22.74027       27.30962        0.417
        8.85428       24.15800       27.83887        0.417
       13.33091       16.55855       21.69721       -0.834
       12.73905       16.44675       20.95328        0.417
       13.32175       15.71035       22.14074        0.417
       26.71233       25.28632       23.32534       -0.834
       27.51396       24.80824       23.53760        0.417
       26.46063       25.70927       24.14631        0.417
       21.59118       15.09913       26.41899       -0.834
       21.08567       15.71852       25.89264        0.417
       21.59781       15.47991       27.29716        0.417
       14.99062       27.89945        9.52230       -0.834
       15.56413       27.28839        9.98485        0.417
       14.59654       27.37678        8.82388        0.417
       21.55658       18.34045       20.23650       -0.834
       21.52246       17.49059       20.67559        0.417
       22.49114       18.52056       20.13457        0.417
       10.96367       11.46001        6.63768       -0.834
       10.13823       11.59711        7.10252        0.417
       11.16662       10.53497        6.77672        0.417
       11.97659       20.01306       27.76724       -0.834
       12.18105       20.31045       28.65380        0.417
       11.69956       19.10344       27.87714        0.417
       24.38298       11.47609       13.31503       -0.834
       23.78856       12.13860       12.96293        0.417
       24.41342       10.79799       12.64013        0.417
       10.02435       23.56553       22.53535       -0.834
       10.37252       22.69979       22.32204        0.417
       10.04168       23.60220       23.49169        0.417
       25.41296       22.25413        5.08256       -0.834
       24.46130       22.22945        5.18244        0.417
       25.75114       22.03423        5.95061        0.417
       13.05484       11.02792        4.89829       -0.834
       12.70939       10.18142        4.61487        0.417
       12.32807       11.43926        5.36609        0.417
       11.89152        5.69794       10.05828       -0.834
       11.52239        5.20340       10.78999        0.417
       12.63351        6.16923       10.43719        0.417
       19.39302       23.32766       25.00641       -0.834
       19.93637       22.67822       24.56007        0.417
       19.97502       24.07551       25.14144        0.417
       26.14370       11.29345       17.16522       -0.834
       26.96483       10.88612       17.44101        0.417
       25.46400       10.68883       17.46303        0.417
       21.95539        4.42291       13.25348       -0.834
       21.49675        5.12628       12.79397        0.417
       21.30075        4.05872       13.84933        0.417
       30.98335       14.62434       17.24136       -0.834
       30.96698       15.26078       16.52656        0.417
       31.74814       14.07835       17.05905        0.417
       24.19871       18.81593       28.84928       -0.834
       24.47113       19.68638       28.55888        0.417
       23.48439       18.98092       29.46473        0.417
       12.63101       25.20581       24.59294       -0.834
       11.78790       24.79731       24.78921        0.417
       13.25726       24.74309       25.14966        0.417
       17.95105       10.17615       15.39484       -0.834
       17.33121       10.07957       14.67186        0.417
       18.11467        9.28103       15.69187        0.417
        5.34904        9.15630       12.72176       -0.834
        5.48819        8.52510       12.01575        0.417
        5.95632        8.88442       13.40989        0.417
       20.86278       28.06694       12.40064       -0.834
       20.01434       28.41074       12.12104        0.417
       20.89945       27.18606       12.02783        0.417
       24.07131       12.09207        6.21924       -0.834
       24.21118       11.93732        5.28505        0.417
       24.95291       12.14796        6.58787        0.417
        6.77104       20.90279        5.32422       -0.834
        7.60879       21.30853        5.10110        0.417
        6.95889       20.37588        6.10095        0.417
       25.13049       24.16435       11.45133       -0.834
       25.20229       23.21084       11.40790        0.417
       24.26566       24.32291       11.82969        0.417
       23.69755       24.45797        7.38488       -0.834
       24.51085       24.35129        7.87824        0.417
       23.22129       23.64000        7.52751        0.417
       20.25830       11.76209       23.47129       -0.834
       20.44163       12.58241       23.01337        0.417
       20.69646       11.85628       24.31709        0.417
       10.76547       11.76686       10.14821       -0.834
       10.44234       11.40848       10.97488        0.417
        9.97512       12.01886        9.67065        0.417
       21.02884        4.79979       17.04503       -0.834
       21.21162        5.73922       17.06241        0.417
       20.59805        4.65469       16.20263        0.417
        9.25770       24.89527        8.63793       -0.834
        8.46411       24.39009        8.46121        0.417
        8.96825       25.80762        8.62959        0.417
       25.77933        8.75880       12.26347       -0.834
       26.00773        8.80482       13.19188        0.417
       26.61229        8.87157       11.80553        0.417
       15.75369       20.54329       26.61222       -0.834
       16.37737       20.92038       25.99170        0.417
       14.99489       21.12549       26.57356        0.417
       13.10044       21.57603       14.17512       -0.834
       12.80742       21.10795       14.95697        0.417
       12.51443       22.33035       14.11329        0.417
       24.60112        4.87518       12.06746       -0.834
       25.21010        4.18302       12.32491        0.417
       23.75181        4.58287       12.39830        0.417
       22.90624       29.05148       13.83333       -0.834
       22.79696       29.55105       14.64248        0.417
       22.01516       28.92392       13.50784        0.417
        4.35949       19.89015       15.91688       -0.834
        4.03195       20.59525       16.47526        0.417
        4.86597       20.33685       15.23851        0.417
       11.07433       26.74188        7.02841       -0.834
       10.19475       27.08378        6.86818        0.417
       10.93636       25.82324        7.25928        0.417
       30.04013       16.45505       24.75442       -0.834
       30.07731       17.11302       24.06021        0.417
       29.44099       15.78742       24.42045        0.417
       17.58760       16.44169        2.86102       -0.834
       17.00875       17.18487        3.03086        0.417
       17.74218       16.46878        1.91678        0.417
       14.18553       13.36229        7.79789       -0.834
       14.01196       13.08311        8.69687        0.417
       14.50471       12.57373        7.35910        0.417
       17.93042       22.49068       11.23305       -0.834
       17.65619       23.29938       11.66553        0.417
       17.68827       21.79664       11.84614        0.417
       14.64850       17.74267       25.00755       -0.834
       13.77320       17.97226       24.69549        0.417
       15.02190       18.57184       25.30635        0.417
        5.67729       19.49600       10.75084       -0.834
        6.27115       19.37799       11.49222        0.417
        4.90331       18.98111       10.97901        0.417
       18.83473       30.17617       11.43650       -0.834
       17.96223       29.87859       11.69422        0.417
       18.68427       30.71911       10.66268        0.417
       19.99563       23.49743       20.49287       -0.834
       20.67733       22.97794       20.06668        0.417
       19.18027       23.04227       20.28251        0.417
        9.73637       16.83035        7.01273       -0.834
       10.04779       15.92591        7.04792        0.417
        8.88096       16.77324        6.58701        0.417
       23.09846       15.79619       20.69745       -0.834
       23.26217       15.62788       19.76950        0.417
       23.84806       15.40699       21.14784        0.417
       15.73479        6.64839        9.24704       -0.834
       14.90312        6.92613        8.86308        0.417
       15.49191        6.24840       10.08206        0.417
       14.22973       22.67429        7.73101       -0.834
       13.37831       23.09334        7.85631        0.417
       14.04032       21.73617        7.74808        0.417
       17.25678       13.66471        4.42114       -0.834
       16.32159       13.59096        4.23083        0.417
       17.61291       14.16249        3.68520        0.417
        6.64628       14.38098       17.83995       -0.834
        6.43921       13.47295       18.06097        0.417