%Nproc=32
%Mem=120Gb
%chk=temp.chk
#p cam-b3lyp/6-31+G(d,p) nosymm charge Freq 

Calculation for S0 with freq for abs spect

0  1
 C         15.67001       17.52951       16.07990
 C         17.29263       15.73382       15.50664
 C         17.69386       15.59301       16.75284
 C         17.02629       16.30618       17.76575
 N         16.02668       17.20797       17.42578
 H         17.67125       15.12497       14.63812
 H         18.45954       14.96849       17.03646
 O         17.17321       16.07324       18.97937
 O         14.84122       18.33227       15.79511
 N         16.36929       16.69331       15.18925
 H         15.95504       16.77448       14.32139
 H         15.50575       17.72944       18.15479
 O         15.16038       12.73560       18.51849
 H         15.39638       12.82334       19.44198
 H         14.79566       13.58839       18.28193
 O         15.26958       18.40867       20.15626
 H         15.44118       17.89855       20.94781
 H         15.93098       19.10050       20.16852
 O         20.37597       16.84231       17.82134
 H         20.52190       16.31836       17.03367
 H         20.22122       16.19850       18.51256
 O         18.08614       16.43414       11.19681
 H         18.59915       16.67966       11.96673
 H         18.25768       15.49943       11.08222
 O         16.99211       11.41405       16.52697
 H         17.67431       10.91973       16.98136
 H         16.53206       11.88349       17.22282
 O         20.62375       15.55142       15.49848
 H         20.11217       14.74404       15.55008
 H         21.41136       15.30587       15.01309
 O         12.22069       19.26648       17.38542
 H         11.59461       19.61068       16.74841
 H         12.52646       18.44470       17.00147
 O         19.62977       19.48121       17.73478
 H         20.01700       18.71729       18.16221
 H         19.72011       19.30383       16.79850
 O         19.17710       17.44179       13.48212
 H         20.04441       17.78154       13.70253
 H         18.58418       17.88611       14.08814
 O         14.75744       15.10878       20.44497
 H         14.58792       15.42518       21.33232
 H         15.38913       15.73127       20.08481
 O         17.14771       20.75291       17.71769
 H         17.10205       20.35120       16.85006
 H         17.99917       20.48367       18.06230
 O         12.39475       12.47727       16.61637
 H         12.81962       13.33388       16.57242
 H         11.72193       12.57736       17.28982
 O         15.47729       12.77010       14.87859
 H         16.05702       12.50519       14.16447
 H         15.85314       12.35996       15.65754
 O         14.01277       14.65537       16.79978
 H         13.46878       15.33746       16.40602
 H         14.64448       14.42845       16.11738
 O         18.97149       16.03971       21.04293
 H         19.49676       16.83410       21.13921
 H         18.35456       16.24365       20.34005
 O         17.93946       19.72671       14.64837
 H         18.73378       19.98661       14.18176
 H         17.22637       19.94479       14.04823
 O         19.16089       12.76961       14.99962
 H         19.88365       12.58135       15.59829
 H         18.45462       12.19073       15.28654
 O         13.31456       20.09135       14.22431
 H         12.35761       20.07985       14.24287
 H         13.57563       19.59991       15.00312
 O         15.07784       16.67276       12.13851
 H         15.79467       16.98724       11.58761
 H         15.13982       15.71872       12.09151
 O         12.58985       16.48932       14.74099
 H         13.09897       17.19123       14.33559
 H         11.89091       16.30636       14.11311
 
       16.13919       17.17329        4.73881       -0.834
       16.63925       17.35233        3.94250        0.417
       15.61917       16.39823        4.52645        0.417
       28.10192       14.05614       13.58301       -0.834
       28.94199       14.38088       13.90714        0.417
       27.78275       14.75016       13.00621        0.417
        7.21160       24.57849       22.92027       -0.834
        7.75621       24.05330       23.50662        0.417
        7.00059       25.36272       23.42692        0.417
       16.32701        3.37366       15.35875       -0.834
       15.79683        4.11100       15.66119        0.417
       16.75948        3.69723       14.56849        0.417
       10.26924       25.49920       22.29725       -0.834
        9.49330       26.03924       22.44726        0.417
       10.84256       25.69150       23.03924        0.417
        8.54191       16.59778       28.35186       -0.834
        8.42793       17.13082       27.56502        0.417
        9.07756       15.85812       28.06514        0.417
       15.40367       29.74742       15.61568       -0.834
       14.99760       28.93245       15.91091        0.417
       16.03239       29.47404       14.94769        0.417
       18.60290        7.73752       27.10834       -0.834
       18.96803        7.18894       27.80258        0.417
       19.12910        7.52946       26.33629        0.417
        8.65380       15.16773       16.64297       -0.834
        9.03878       15.22583       15.76853        0.417
        8.09693       15.94321       16.71202        0.417
       29.88120       15.71507       17.32307       -0.834
       30.71037       15.23814       17.35849        0.417
       29.52665       15.64615       18.20951        0.417
       11.30717       20.47914       23.57524       -0.834
       10.89363       19.94911       22.89385        0.417
       11.00012       21.36980       23.40590        0.417
       19.16092       15.77460       29.93339       -0.834
       18.76778       16.41035       30.53130        0.417
       18.64717       15.85169       29.12942        0.417
       21.56139       24.64421       17.77205       -0.834
       21.26595       24.82600       16.87992        0.417
       20.99877       25.18524       18.32610        0.417
       10.36138       10.40398        4.51652       -0.834
       10.40831        9.74517        5.20933        0.417
       10.73111        9.97027        3.74747        0.417
       11.92220        5.65689       17.42333       -0.834
       11.80661        4.83457       17.89942        0.417
       12.28008        6.26202       18.07292        0.417
        3.47261       13.80792       13.67574       -0.834
        2.61881       13.71485       13.25314        0.417
        3.97999       14.35286       13.07422        0.417
       15.35606       12.77945        8.30061       -0.834
       15.53667       11.96035        8.76181        0.417
       14.40759       12.77817        8.17167        0.417
       24.57893       22.41646       22.04644       -0.834
       24.42239       22.42646       21.10219        0.417
       23.95735       21.77256       22.38594        0.417
       24.30056        4.73447       12.82495       -0.834
       24.92300        4.12473       13.22120        0.417
       24.10537        5.36340       13.51964        0.417
       16.66487        9.50777       27.26121       -0.834
       17.46991        8.99464       27.19162        0.417
       15.96197        8.86822       27.14663        0.417
       18.46623        8.56984        5.01191       -0.834
       18.44932        9.22850        5.70626        0.417
       19.03407        8.94513        4.33890        0.417
       11.10102       29.06182       17.48534       -0.834
       11.33843       29.31894       16.59441        0.417
       11.30802       28.12829       17.52893        0.417
        8.57735       22.32389       21.01442       -0.834
        7.98450       23.06963       21.10739        0.417
        8.73827       22.26115       20.07293        0.417
       18.66080       13.49078        8.16060       -0.834
       18.23211       12.63714        8.22190        0.417
       18.85936       13.72525        9.06715        0.417
       18.30734        8.02750       19.21892       -0.834
       18.66504        8.65391       18.58974        0.417
       18.27905        8.50798       20.04631        0.417
       22.58083       28.66498       18.01699       -0.834
       22.20162       28.64252       18.89559        0.417
       22.72995       29.59447       17.84366        0.417
       25.99558       10.10111       12.11046       -0.834
       26.32096       10.18318       13.00691        0.417
       26.54873       10.69190       11.59935        0.417
       17.63925       18.59039       29.99942       -0.834
       17.49513       19.53081       29.89422        0.417
       17.01137       18.18314       29.40264        0.417
       16.32421       11.37214       29.34682       -0.834
       16.65195       10.73098       28.71617        0.417
       16.28235       12.19245       28.85534        0.417
       12.90975        6.46009        8.44975       -0.834
       13.19748        5.68838        8.93751        0.417
       12.39621        6.10707        7.72319        0.417
       23.95717       13.15140       15.31378       -0.834
       24.06130       13.68946       16.09856        0.417
       23.38812       13.66747       14.74274        0.417
       16.20156       21.28393       30.19834       -0.834
       15.58746       21.65184       29.56293        0.417
       15.95000       21.68032       31.03250        0.417
       22.42902        4.52481       17.90613       -0.834
       21.76314        4.71573       17.24554        0.417
       21.94702        4.10418       18.61816        0.417
       10.70497       29.17033       11.93959       -0.834
       10.08379       28.80181       11.31145        0.417
       10.26087       29.94157       12.29200        0.417
        8.88780       10.54931       11.42704       -0.834
        8.62017        9.66825       11.16565        0.417
        8.13527       10.89654       11.90595        0.417
       10.20251       24.94370       19.46654       -0.834
       10.44525       24.86425       20.38903        0.417
        9.70118       24.14967       19.28105        0.417
       17.69244        4.43023       13.07610       -0.834
       17.31275        5.20438       12.66045        0.417
       18.63590        4.52656       12.94633        0.417
       15.13107       22.33285        3.88413       -0.834
       14.94544       21.39394        3.86989        0.417
       15.81187       22.43282        4.54952        0.417
       22.58709       20.31008       22.63498       -0.834
       22.34024       19.47865       23.03999        0.417
       22.11480       20.97236       23.13951        0.417
       25.98510       20.48918        5.95546       -0.834
       25.68862       21.36884        6.18901        0.417
       25.24654       20.10443        5.48351        0.417
       16.39899       26.18202       23.55689       -0.834
       16.53223       26.44319       24.46809        0.417
       16.50881       26.99084       23.05691        0.417
       19.82214       26.57715       24.88255       -0.834
       20.19772       26.68126       25.75681        0.417
       18.96567       27.00107       24.93726        0.417
       23.76654       26.15806       19.14616       -0.834
       23.17926       25.64388       18.59213        0.417
       23.18324       26.71164       19.66534        0.417
        6.06409       15.30266       19.81597       -0.834
        5.97366       14.35091       19.86312        0.417
        5.21422       15.60910       19.49966        0.417
       13.06399        7.50299       19.03304       -0.834
       13.68917        7.93862       18.45372        0.417
       12.65756        8.21533       19.52662        0.417
       20.80329        5.21102       15.87454       -0.834
       20.04252        5.70472       16.18066        0.417
       20.48927        4.74072       15.10224        0.417
       13.64605       11.59393        1.94338       -0.834
       12.86028       11.83817        2.43240        0.417
       14.34821       11.61026        2.59371        0.417
       18.43069       25.01666       15.57669       -0.834
       18.80497       24.85849       16.44337        0.417
       19.00633       25.67211       15.18266        0.417
       14.11713       27.39589       16.10499       -0.834
       13.49790       27.12810       16.78402        0.417
       14.83058       26.76076       16.16683        0.417
        9.52460       10.02921       21.82807       -0.834
        9.00121        9.69368       21.10026        0.417
        9.22854        9.52777       22.58777        0.417
       23.78919       25.09956        7.75497       -0.834
       24.10352       25.97324        7.52237        0.417
       22.83988       25.19772        7.82842        0.417
       12.44758       16.47232       30.25595       -0.834
       12.71413       15.56164       30.38181        0.417
       12.30351       16.80484       31.14190        0.417
        7.29579        7.84298       14.95551       -0.834
        8.02648        8.44273       14.80512        0.417
        6.88874        8.15821       15.76246        0.417
       19.90472       20.29567        2.39309       -0.834
       20.39175       20.74047        1.69941        0.417
       19.40925       20.99259        2.82326        0.417
       10.65983        6.96627       15.24648       -0.834
       11.21483        6.49302       15.86636        0.417
       10.47213        6.32896       14.55740        0.417
        7.31499       14.27424       13.34553       -0.834
        7.19393       13.42071       13.76153        0.417
        8.24583       14.46651       13.45870        0.417
        6.30101       10.27193       21.98042       -0.834
        6.44071       11.20611       22.13539        0.417
        6.95132        9.83726       22.53213        0.417
       12.13925       29.38906       21.41723       -0.834
       12.07374       28.52133       21.01850        0.417
       12.07824       29.99698       20.68039        0.417
        7.89869       25.43298        9.63697       -0.834
        7.41578       25.76660        8.88084        0.417
        8.77238       25.23925        9.29730        0.417
       16.05226        9.48643       14.12713       -0.834
       16.56032        8.68033       14.21826        0.417
       16.70089       10.15547       13.90828        0.417
       21.60115       17.75719       27.05562       -0.834
       21.01779       18.41138       27.44028        0.417
       21.13830       17.45214       26.27527        0.417
       25.59841       23.53106        6.60142       -0.834
       26.26158       24.09104        7.00496        0.417
       24.76963       23.83657        6.97024        0.417
       16.95829        9.33103       23.72616       -0.834
       17.80433        9.51518       24.13424        0.417
       17.08822        9.53765       22.80061        0.417
       14.38413       25.73690       27.13542       -0.834
       14.12029       26.64887       27.01328        0.417
       15.02499       25.76557       27.84585        0.417
       18.66219       18.88219       23.38068       -0.834
       19.19130       18.23927       22.90853        0.417
       19.29635       19.51794       23.71217        0.417
        5.22939       24.88008       14.14864       -0.834
        4.56768       24.48278       14.71479        0.417
        4.98297       24.60866       13.26442        0.417
        7.51904       18.13121       15.85074       -0.834
        7.02287       18.46103       16.59992        0.417
        6.93165       17.50194       15.43214        0.417
       15.83051       12.62973       23.50139       -0.834
       16.34255       13.31899       23.92446        0.417
       16.47377       12.12252       23.00623        0.417
       20.47899        4.90626       12.67231       -0.834
       20.99435        5.45885       12.08471        0.417
       20.80098        4.01929       12.51154        0.417
       26.88610       27.13564       14.53863       -0.834
       26.79559       27.14943       15.49144        0.417
       27.68674       27.63117       14.36642        0.417
       13.49468       12.64378       26.56156       -0.834
       13.77684       11.76549       26.81697        0.417
       12.99374       12.51040       25.75688        0.417
       14.15575       24.10863       17.80103       -0.834
       14.68914       24.19334       17.01075        0.417
       14.04501       23.16481       17.91580        0.417
        4.68505        6.67945       14.38041       -0.834
        4.41927        7.52215       14.01236        0.417
        5.59675        6.80858       14.64184        0.417
       23.59353       15.93762       27.36977       -0.834
       24.37057       16.27960       27.81192        0.417
       23.00981       16.69228       27.29237        0.417
       16.35523       22.34751       20.84100       -0.834
       16.24513       22.50801       21.77820        0.417
       16.47592       21.40044       20.77226        0.417
        4.07359       17.70501       13.61592       -0.834
        4.47098       17.09475       12.99471        0.417
        3.24560       17.95789       13.20761        0.417
       24.73070        8.25213       10.44154       -0.834
       25.14408        9.02127       10.83366        0.417
       24.12940        8.60971        9.78823        0.417
       16.44444       30.29537       20.07527       -0.834
       15.79515       30.98510       19.93765        0.417
       16.01074       29.49501       19.77937        0.417
       21.19224       13.13578        7.22643       -0.834
       21.38851       12.91083        6.31697        0.417
       20.23871       13.21507        7.25361        0.417
       12.09426       26.07120       14.32518       -0.834
       11.92719       25.12923       14.35698        0.417
       12.30877       26.30749       15.22761        0.417
        6.32858        7.51082       20.86318       -0.834
        6.24646        8.10933       21.60566        0.417
        6.27649        6.63765       21.25189        0.417
       11.74735       11.55086       11.41140       -0.834
       10.92640       11.09670       11.22165        0.417
       11.77193       11.61329       12.36625        0.417
       16.93202       11.64393       12.39966       -0.834
       16.37610       11.34169       11.68144        0.417
       17.69327       11.06420       12.37424        0.417
       18.81658       12.66070        3.72630       -0.834
       18.18487       12.79942        3.02066        0.417
       19.35295       13.45351        3.72751        0.417
       10.74920       24.98837       25.36543       -0.834
       10.25285       24.33982       24.86619        0.417
       11.33365       24.46971       25.91827        0.417
       23.84666       19.41236       12.73071       -0.834
       23.87456       18.73090       13.40232        0.417
       24.33150       20.14459       13.11151        0.417
       24.11565       27.54292       13.57336       -0.834
       25.06652       27.64584       13.61183        0.417
       23.81811       27.72685       14.46435        0.417
        6.19510       13.62819       16.39432       -0.834
        6.65063       12.81243       16.18631        0.417
        6.81399       14.11707       16.93674        0.417
       21.88849       28.41839       20.73436       -0.834
       22.05602       27.77289       21.42101        0.417
       20.93561       28.50740       20.71599        0.417
       10.57368        9.33866       17.79239       -0.834
       10.75525        9.88465       18.55735        0.417
       10.81380        8.45363       18.06678        0.417
       24.27468       11.71149       25.20139       -0.834
       24.14330       10.86609       24.77214        0.417
       23.64951       11.71235       25.92622        0.417
       11.14199       24.67323        4.69842       -0.834
       11.74577       24.52418        3.97077        0.417
       11.28465       23.93016        5.28469        0.417
       13.76120        4.94594       13.00644       -0.834
       13.79223        5.28357       13.90158        0.417
       13.38363        4.07063       13.09306        0.417
       23.43373        9.00765       24.83446       -0.834
       24.25121        8.58819       25.10282        0.417
       22.93665        9.10608       25.64653        0.417
       17.46744       24.52940        9.40405       -0.834
       16.91524       24.23822        8.67844        0.417
       17.04182       24.17736       10.18581        0.417
       18.99602       10.01921       17.55121       -0.834
       19.19208        9.62025       16.70349        0.417
       19.72208       10.62353       17.70571        0.417
       29.64934       22.24313       15.43131       -0.834
       29.98786       23.09985       15.17116        0.417
       29.05753       21.99335       14.72166        0.417
       11.02455        6.76319       24.85726       -0.834
       10.56827        7.03100       25.65496        0.417
       11.85469        6.40017       25.16601        0.417
       17.90584        4.92849       23.08765       -0.834
       18.51413        5.39046       22.51076        0.417
       17.25671        4.54750       22.49629        0.417
        5.41904       18.50764       20.54846       -0.834
        4.69706       18.29083       21.13835        0.417
        6.19041       18.53824       21.11440        0.417
        4.68512       24.75265       22.19547       -0.834
        4.31702       23.87594       22.30553        0.417
        5.61280       24.65194       22.40879        0.417
        6.27508       23.52398       19.63729       -0.834
        5.58517       24.14833       19.86191        0.417
        6.79275       23.96939       18.96658        0.417
       17.82553       22.12591       25.16798       -0.834
       17.23137       22.77723       25.54079        0.417
       18.26816       22.58544       24.45443        0.417
       15.57016       23.48932       26.26710       -0.834
       15.19545       22.78707       26.79878        0.417
       15.10800       24.27800       26.55104        0.417
       22.86149        9.62442        4.98405       -0.834
       23.59739       10.22653        4.87380        0.417
       22.71495        9.26204        4.11030        0.417
       18.93738       23.32132       13.30535       -0.834
       18.99441       23.48901       14.24602        0.417
       19.10212       24.17240       12.89944        0.417
       20.64904       10.69289        6.11235       -0.834
       20.64202       10.56210        7.06055        0.417
       21.56614       10.58204        5.86159        0.417
       14.06254       21.24224       18.34955       -0.834
       14.96966       20.96900       18.21278        0.417
       13.57568       20.42278       18.43719        0.417
        1.87115       21.05829       19.92635       -0.834
        1.42458       20.33888       19.47997        0.417
        2.73011       21.10489       19.50655        0.417
       26.60663       11.81733       14.42920       -0.834
       27.15331       12.49605       14.03334        0.417
       26.06110       12.28647       15.06050        0.417
        3.97975       15.35205       17.73328       -0.834
        4.60108       14.98178       17.10631        0.417
        3.23458       14.75150       17.71587        0.417
       25.92650       27.38862       19.89180       -0.834
       25.28756       26.82886       19.45060        0.417
       26.56483       26.77878       20.26176        0.417
       16.38628        6.09769       26.03289       -0.834
       16.97660        6.41438       25.34918        0.417
       16.88961        5.42530       26.49201        0.417
       10.15530        5.19194       12.85977       -0.834
       10.61908        4.49727       13.32727        0.417
       10.84010        5.65520       12.37742        0.417
       26.70342       18.98123       10.82752       -0.834
       26.27473       18.87051        9.97887        0.417
       27.62777       19.10945       10.61455        0.417
       13.47239       20.91133        6.54984       -0.834
       14.22432       20.94531        7.14118        0.417
       13.81587       20.51892        5.74717        0.417
       25.46849       17.35311       19.40751       -0.834
       25.46008       16.57467       19.96447        0.417
       26.11614       17.15687       18.73055        0.417
       22.17725       10.60261       18.90176       -0.834
       22.91955       10.90867       19.42287        0.417
       21.77975        9.91235       19.43257        0.417
       19.78240       30.42301       16.01633       -0.834
       19.33630       30.59689       16.84517        0.417
       20.63720       30.84321       16.11110        0.417
       22.18835       15.48015       11.11304       -0.834
       22.23206       16.43210       11.02295        0.417
       21.61237       15.19804       10.40247        0.417
       25.44797       14.60217       10.89902       -0.834
       25.99772       15.25847       11.32713        0.417
       24.55645       14.93776       10.99281        0.417
       24.94376       14.41111       17.54375       -0.834
       24.46886       14.78886       18.28402        0.417
       25.47633       13.71578       17.92990        0.417
       22.96252       15.35446        7.93110       -0.834
       22.30815       16.04706        8.02234        0.417
       22.49746       14.64095        7.49425        0.417
       24.40119       16.97424       14.85721       -0.834
       23.85842       17.20272       15.61181        0.417
       25.23901       16.70813       15.23599        0.417
       11.30481       16.91842       21.82395       -0.834
       10.96875       16.10292       21.45212        0.417
       12.01640       16.64329       22.40204        0.417
       21.58087       29.68865       13.64551       -0.834
       22.35103       29.90133       13.11839        0.417
       21.11138       30.51849       13.73017        0.417
       23.79904       19.76930        4.79392       -0.834
       23.64003       19.86298        3.85468        0.417
       23.37632       18.94291        5.02763        0.417
       13.84871        5.51623       25.29869       -0.834
       13.85183        4.93108       24.54118        0.417
       14.74976        5.83324       25.36076        0.417
        6.57366       26.82037       20.10646       -0.834
        7.38188       27.32635       20.02287        0.417
        6.86166       25.95372       20.39318        0.417
       15.30609       27.92645       19.66630       -0.834
       15.87662       27.16991       19.80184        0.417
       14.43332       27.61483       19.90585        0.417
       26.23905        7.41410       20.25633       -0.834
       26.74401        6.73911       19.80286        0.417
       25.35990        7.34706       19.88373        0.417
       16.16117       24.75305        6.93785       -0.834
       15.53595       25.25725        6.41716        0.417
       15.96687       23.83961        6.72782        0.417
       25.02599       23.83767       12.06260       -0.834
       24.78157       23.89677       11.13902        0.417
       25.47424       24.66341       12.24554        0.417
        6.19637       15.93417        5.79545       -0.834
        7.12712       15.82318        5.98938        0.417
        6.04543       16.87609        5.87445        0.417
       24.09450       26.95663       10.80089       -0.834
       25.03213       26.86260       10.96897        0.417
       23.69775       26.99860       11.67098        0.417
       23.77485       14.28057       20.39146       -0.834
       24.12336       14.51685       21.25108        0.417
       24.03038       13.36587       20.27206        0.417
       23.74968       25.96784       24.31696       -0.834
       23.27235       25.26330       24.75513        0.417
       24.39294       26.25979       24.96288        0.417
        6.57672       12.16959       19.94901       -0.834
        7.21730       12.40956       20.61856        0.417
        6.50692       11.21716       20.01405        0.417
       21.13363        3.56420       20.34604       -0.834
       21.32641        2.62870       20.40843        0.417
       20.18538        3.60609       20.22232        0.417
       16.80103       19.64789       25.14680       -0.834
       17.18264       20.51515       25.28266        0.417
       17.12847       19.37311       24.29034        0.417
        1.17752       16.59723       17.34896       -0.834
        2.11936       16.46238       17.45379        0.417
        0.79228       15.73612       17.51117        0.417
       12.45411       13.05763       29.44228       -0.834
       12.66394       12.74982       28.56055        0.417
       11.86215       12.39274       29.79404        0.417
       20.59526       19.67560        6.23333       -0.834
       20.88271       20.58830        6.25766        0.417
       19.93625       19.61303        6.92473        0.417
       17.32213       26.18341       19.54334       -0.834
       17.11828       25.34147       19.95054        0.417
       18.26313       26.14561       19.37213        0.417
        6.90844       20.17219       25.17027       -0.834
        6.76127       19.99250       24.24168        0.417
        6.23740       19.66123       25.62289        0.417
       11.75542       10.94324       14.44884       -0.834
       11.14807       10.25133       14.71079        0.417
       11.79444       11.52762       15.20595        0.417
       10.63290       19.49284       15.00848       -0.834
       10.11089       18.88264       14.48752        0.417
       10.29978       20.35792       14.76995        0.417
       21.64723       17.82411       29.93489       -0.834
       21.00915       17.18569       29.61627        0.417
       22.08352       18.14230       29.14455        0.417
       13.32956       22.12292       29.50683       -0.834