%Nproc=32
%Mem=120Gb
%chk=temp.chk
#p cam-b3lyp/6-31+G(d,p) nosymm charge Freq 

Calculation for S0 with freq for abs spect

0  1
 C         15.67001       17.52951       16.07990
 C         17.29263       15.73382       15.50664
 C         17.69386       15.59301       16.75284
 C         17.02629       16.30618       17.76575
 N         16.02668       17.20797       17.42578
 H         17.67125       15.12497       14.63812
 H         18.45954       14.96849       17.03646
 O         17.17321       16.07324       18.97937
 O         14.84122       18.33227       15.79511
 N         16.36929       16.69331       15.18925
 H         15.95504       16.77448       14.32139
 H         15.50575       17.72944       18.15479
 O         18.85878       16.81457       21.02426
 H         18.71776       16.85554       20.07840
 H         19.46424       17.53284       21.20797
 O         14.68324       14.53614       13.63988
 H         15.31149       15.25229       13.54675
 H         15.21606       13.74219       13.59543
 O         18.93794       19.58511       18.61367
 H         18.71419       19.92569       19.47980
 H         19.54870       18.86896       18.78782
 O         20.71162       15.16575       16.37080
 H         20.15892       15.92191       16.56825
 H         20.13763       14.40992       16.49521
 O         19.03395       13.25214       17.31694
 H         18.40462       12.65023       16.91960
 H         18.76201       13.31363       18.23264
 O         14.95913       11.92955       18.16700
 H         14.13931       11.92809       18.66108
 H         15.42138       12.71051       18.47138
 O         16.22899       20.27069       18.54605
 H         15.86509       19.38728       18.60436
 H         17.16544       20.13541       18.40115
 O         16.71358       13.36642       19.61963
 H         16.48887       14.13047       20.15062
 H         16.70381       12.63436       20.23625
 O         15.33320       15.36110       20.65156
 H         15.59394       15.28109       21.56908
 H         14.39009       15.52164       20.68321
 O         18.50370       21.53302       16.47283
 H         18.65014       22.44678       16.71746
 H         18.69979       21.03737       17.26790
 O         12.84785       13.56231       18.92502
 H         12.12812       14.19059       18.86601
 H         13.49736       13.88192       18.29874
 O         15.04308       17.89810       19.24700
 H         14.16392       17.76532       18.89248
 H         15.35492       17.01659       19.45178
 O         14.04513       19.56563       13.57828
 H         14.80963       20.13513       13.66452
 H         14.19548       19.08359       12.76510
 O         16.93288       21.04261       14.48403
 H         17.64372       20.99382       15.12322
 H         16.81005       21.97978       14.33279
 O         17.01211       11.84902       16.05910
 H         16.46558       11.82938       16.84471
 H         17.17060       10.92761       15.85391
 O         12.76977       17.87148       15.17366
 H         12.41532       17.29036       14.50068
 H         13.16385       18.59342       14.68404
 O         14.30361       19.78747       21.25788
 H         14.84776       19.44394       21.96648
 H         14.73206       19.48397       20.45754
 O         14.63801       21.50864       16.34850
 H         15.39167       21.18912       15.85240
 H         14.38370       20.76963       16.90118
 O         12.59430       17.98444       18.17193
 H         12.44021       17.98289       17.22722
 H         11.72807       18.11953       18.55616
 O         21.42870       17.66529       18.94371
 H         20.90983       16.94127       18.59326
 H         21.63710       17.39968       19.83939
 O         20.33279       17.40139       14.12545
 H         21.09610       17.61019       14.66395
 H         20.13085       18.21789       13.66852
 O         16.80203       18.87474       12.26711
 H         17.09846       19.54935       12.87806
 H         16.37145       19.36051       11.56364
 O         16.82405       16.27650       13.15433
 H         16.80647       17.13689       12.73521
 H         17.75067       16.03717       13.17226
 
        7.96308       13.19041       21.46267       -0.834
        8.41358       12.93665       22.26820        0.417
        7.85889       14.13919       21.53465        0.417
       18.05062        5.55229       20.84689       -0.834
       18.99648        5.55646       20.70010        0.417
       17.85844        4.66430       21.14820        0.417
       18.02738       31.37858       15.10765       -0.834
       17.19875       30.97351       14.85170        0.417
       17.77620       32.07921       15.70952        0.417
       26.76895       18.56285       22.04088       -0.834
       25.82224       18.45028       21.95540        0.417
       27.06315       18.79759       21.16078        0.417
        6.03495        7.07807       15.18710       -0.834
        5.93048        6.15970       14.93828        0.417
        6.85876        7.10259       15.67390        0.417
        5.72902       19.71928       18.42785       -0.834
        6.19849       18.88618       18.38561        0.417
        6.16085       20.27140       17.77599        0.417
       19.13282       22.91667       25.02759       -0.834
       19.35256       22.91718       25.95923        0.417
       18.68611       22.08188       24.88684        0.417
       23.49822       20.74193       20.33685       -0.834
       23.82290       20.06248       20.92775        0.417
       23.50311       20.33067       19.47251        0.417
       14.47439       24.50136       24.63030       -0.834
       13.53812       24.64042       24.48788        0.417
       14.55239       24.33710       25.57007        0.417
       15.67121        9.41798       11.73799       -0.834
       15.48617        9.68275       12.63904        0.417
       15.07585        9.94568       11.20572        0.417
       20.08091       19.69789       24.99496       -0.834
       19.87674       20.02743       25.87015        0.417
       19.29152       19.87260       24.48254        0.417
       16.99670       16.20453       23.04265       -0.834
       17.61155       15.92469       23.72080        0.417
       17.53826       16.66912       22.40461        0.417
       29.01367       20.45480       22.67785       -0.834
       28.28436       19.92123       22.36218        0.417
       29.74969       20.21152       22.11631        0.417
       11.71753       11.24579       20.30024       -0.834
       12.11430       12.09654       20.11309        0.417
       12.38882       10.60886       20.05545        0.417
       24.27253       10.15454       24.87418       -0.834
       23.92111        9.63056       25.59403        0.417
       24.53708       10.97823       25.28378        0.417
       13.62020       10.72168       16.31736       -0.834
       13.46930       11.47003       15.73992        0.417
       14.08040       11.08961       17.07175        0.417
       19.59566       17.85995       30.56160       -0.834
       20.26643       18.08209       29.91587        0.417
       19.45611       18.67051       31.05123        0.417
       25.54290       15.39082        7.31201       -0.834
       25.04074       15.49045        6.50321        0.417
       26.04759       16.20109        7.38249        0.417
        7.12269       10.19244       11.35392       -0.834
        6.52209        9.84339       10.69539        0.417
        7.06422       11.14246       11.25252        0.417
       11.29674        5.10777       16.06003       -0.834
       10.98396        4.20315       16.05133        0.417
       11.43813        5.32169       15.13782        0.417
       10.10706       17.85705       10.92531       -0.834
        9.95519       17.50170       10.04959        0.417
       10.29798       18.78347       10.77859        0.417
       20.11845       22.83622        8.58590       -0.834
       19.61001       22.10122        8.92868        0.417
       20.91456       22.84585        9.11726        0.417
       19.59837       25.94694       20.04826       -0.834
       18.95935       25.30616       20.36014        0.417
       19.07698       26.71979       19.83129        0.417
       23.96762       16.44243        5.36884       -0.834
       24.30430       16.63464        4.49367        0.417
       23.12504       16.89506        5.40658        0.417
       18.93348       19.99403        1.97879       -0.834
       18.19770       20.38864        2.44691        0.417
       19.58501       20.69305        1.92290        0.417
       20.48006       11.12518       23.75833       -0.834
       20.47661       11.00451       22.80877        0.417
       20.96581       10.37187       24.09421        0.417
       23.95317       19.03113       26.05359       -0.834
       23.23072       18.58211       25.61464        0.417
       23.57765       19.86192       26.34514        0.417
       20.35429       19.80221       12.37662       -0.834
       19.70610       20.29307       11.87151        0.417
       21.17059       19.90983       11.88845        0.417
        9.49304       26.35802       25.07895       -0.834
        9.92765       27.06962       25.54904        0.417
        8.72306       26.76669       24.68354        0.417
       27.50752       10.42244       25.46574       -0.834
       27.24094        9.52113       25.28461        0.417
       27.79476       10.76264       24.61840        0.417
        6.69172       15.55420       13.10491       -0.834
        7.42214       14.98377       13.34436        0.417
        7.06274       16.43650       13.11570        0.417
       17.19644       16.34860       30.84313       -0.834
       17.50682       15.44718       30.75745        0.417
       17.98119       16.88455       30.72843        0.417
       25.36834       22.67585       17.81694       -0.834
       24.52404       23.04230       18.07980        0.417
       25.21533       22.32609       16.93916        0.417
       19.82219       26.16896        7.30191       -0.834
       20.37938       25.62273        6.74748        0.417
       19.42461       26.79656        6.69835        0.417
        3.16844       15.63565       19.89199       -0.834
        4.02714       16.01610       19.70723        0.417
        2.72822       16.28930       20.43528        0.417
       21.42634       20.11294       29.71158       -0.834
       21.56588       20.32886       30.63361        0.417
       22.21115       20.43507       29.26824        0.417
       13.00085       25.76482       10.29370       -0.834
       13.80012       25.65515        9.77855        0.417
       12.85601       26.71079       10.31349        0.417
       12.37036       17.29762       29.30316       -0.834
       12.67986       16.39604       29.39026        0.417
       11.41592       17.22598       29.31567        0.417
       13.57700       14.81815        9.29158       -0.834
       14.40734       15.02731        9.71938        0.417
       13.69909       15.09353        8.38301        0.417
        4.20489       22.39466        9.50559       -0.834
        5.06534       22.01773        9.68936        0.417
        4.09582       23.07770       10.16725        0.417
       19.66514       15.94636       24.31638       -0.834
       19.67296       15.61815       23.41724        0.417
       19.57885       15.16157       24.85758        0.417
       14.98998        3.52735       10.86963       -0.834
       14.75516        2.79752       10.29652        0.417
       15.91859        3.68043       10.69504        0.417
       16.43338       11.48095       31.04584       -0.834
       16.94870       11.74175       30.28252        0.417
       15.60345       11.17334       30.68140        0.417
       22.16702       15.66858       20.94753       -0.834
       22.20312       14.74416       20.70182        0.417
       21.45464       15.71987       21.58480        0.417
        8.61975        5.00486       18.85532       -0.834
        7.80629        4.53271       18.67758        0.417
        9.29078        4.51374       18.38124        0.417
       12.17741        8.57121        7.57627       -0.834
       12.48438        7.66484        7.55373        0.417
       12.91468        9.06544        7.93462        0.417
       19.45568       12.78102       12.97292       -0.834
       19.58176       12.59343       12.04278        0.417
       18.50773       12.86692       13.07407        0.417
        8.81896        7.30092       24.64862       -0.834
        7.95271        7.36234       25.05120        0.417
        8.82673        6.44224       24.22573        0.417
        5.41444       27.37484       14.46788       -0.834
        4.80299       27.24786       13.74246        0.417
        5.79756       26.50976       14.61305        0.417
       10.25718       26.16167       11.49676       -0.834
       10.49164       25.45596       10.89406        0.417
       10.66868       26.94169       11.12464        0.417
       24.00628        9.48806       22.19352       -0.834
       24.53777       10.26021       21.99976        0.417
       23.58811        9.68852       23.03088        0.417
       26.21338        7.30605       21.78551       -0.834
       25.52905        7.96611       21.67486        0.417
       26.46956        7.37778       22.70500        0.417
       14.60686       29.30817       11.97741       -0.834
       14.55104       29.92485       11.24747        0.417
       15.51127       28.99525       11.95860        0.417
        5.72626        7.62108       18.08470       -0.834
        5.35804        8.13359       17.36500        0.417
        6.64864        7.51114       17.85367        0.417
       16.24569       26.67535       23.96611       -0.834
       16.45173       26.34843       23.09038        0.417
       15.65629       26.01765       24.33527        0.417
       26.36665       14.43106       12.18556       -0.834
       25.97299       14.47918       13.05674        0.417
       25.74783       14.88927       11.61695        0.417
       14.47691        5.03263       19.42098       -0.834
       14.01421        5.85947       19.28505        0.417
       15.09717        4.98234       18.69367        0.417
        6.57912       22.91621       16.40622       -0.834
        6.53897       23.57174       15.70987        0.417
        6.60824       22.07785       15.94520        0.417
        8.15198       15.70155       29.54356       -0.834
        7.40291       16.19327       29.20690        0.417
        8.87955       16.32287       29.51453        0.417
       19.45039       29.54360       22.10691       -0.834
       19.68310       30.25639       22.70188        0.417
       20.28682       29.24911       21.74649        0.417
       11.63304       24.59170       24.14948       -0.834
       10.87133       25.05863       24.49298        0.417
       11.59660       24.73591       23.20390        0.417
       15.00218       19.95145        4.10192       -0.834
       15.61313       19.54999        3.48402        0.417
       14.26271       20.22987        3.56163        0.417
       22.51687        6.82624       15.79701       -0.834
       22.82651        7.65459       16.16331        0.417
       22.51118        6.96955       14.85061        0.417
       25.50567       14.76717       22.20925       -0.834
       26.21783       15.15004       22.72158        0.417
       24.71664       15.20190       22.53279        0.417
        6.33107       17.25421       18.58865       -0.834
        6.76580       16.86977       19.34987        0.417
        6.43136       16.59857       17.89849        0.417
       10.42229       24.46328        6.14963       -0.834
        9.79822       23.97260        6.68443        0.417
       10.23636       24.18912        5.25158        0.417
       18.95144       19.85040        5.54740       -0.834
       18.44005       19.21356        5.04826        0.417
       18.88031       20.66202        5.04496        0.417
       21.54442        4.52796       14.92021       -0.834
       22.13739        3.90728       15.34374        0.417
       21.67132        5.34656       15.39981        0.417
       30.64915       12.94990       11.03594       -0.834
       30.03115       13.15117       11.73865        0.417
       31.10258       13.77660       10.87103        0.417
       21.47017       15.61426        8.77341       -0.834
       21.93740       15.10157        9.43302        0.417
       21.53519       15.09251        7.97355        0.417
       23.60610       13.84205       12.75919       -0.834
       23.34218       12.94901       12.98071        0.417
       24.21393       14.09225       13.45501        0.417
       21.25520       11.75393       10.03042       -0.834
       20.70282       11.31148        9.38595        0.417
       21.24293       11.17654       10.79377        0.417
       10.20065       10.62135       27.65145       -0.834
        9.65485       11.13379       27.05501        0.417
       10.53731        9.90506       27.11310        0.417
       23.89084       20.29518       13.54422       -0.834
       23.74991       19.50220       14.06147        0.417
       23.33658       20.17990       12.77238        0.417
       18.80737       18.62803        8.40658       -0.834
       18.63241       17.72342        8.14714        0.417
       19.34149       18.98252        7.69575        0.417
       10.98669       14.40706       29.71245       -0.834
       11.51735       13.70940       29.32786        0.417
       10.10494       14.25247       29.37354        0.417
        6.57469       14.42255        8.05464       -0.834
        6.07473       14.76829        8.79405        0.417
        6.64798       15.15993        7.44873        0.417
       22.83803       19.55802       17.55950       -0.834
       22.41248       18.72575       17.76560        0.417
       22.11872       20.18650       17.49764        0.417
       12.91463        9.58884       10.77092       -0.834
       13.23505        9.25877        9.93151        0.417
       12.72859        8.80185       11.28303        0.417
        3.73010       19.96553       12.73381       -0.834
        3.52763       19.11140       12.35211        0.417
        3.17409       20.01891       13.51114        0.417
        3.86196       11.47686       11.34419       -0.834
        3.68630       10.53963       11.42776        0.417
        3.85265       11.63960       10.40097        0.417
       12.17990       20.13791        4.76281       -0.834
       12.16128       21.03617        4.43265        0.417
       13.07099       19.83593        4.58672        0.417
       13.39682        6.19066       10.77207       -0.834
       14.13618        6.60358       10.32589        0.417
       13.67992        5.28852       10.92114        0.417
       10.78781       10.66070       16.41024       -0.834
       10.83020        9.86390       15.88151        0.417
       11.60607       10.66296       16.90693        0.417
       18.20742       16.42829        6.86757       -0.834
       17.51036       16.86322        6.37647        0.417
       17.75531       15.98858        7.58762        0.417
        7.73804       12.87686       10.57465       -0.834
        8.29455       13.33763       11.20252        0.417
        7.64474       13.48744        9.84340        0.417
       21.92990       23.00910       22.06888       -0.834
       20.98902       22.84864       22.14119        0.417
       21.99621       23.91245       21.75936        0.417
       19.28914       19.97495       27.96408       -0.834
       19.95133       20.02152       28.65370        0.417
       19.07287       19.04460       27.90147        0.417
        5.07516       18.44649       24.46667       -0.834
        5.86812       18.02094       24.14057        0.417
        4.50658       17.72358       24.73189        0.417
        3.27261       18.81686       17.70011       -0.834
        4.17468       18.96745       17.98263        0.417
        3.34785       18.18925       16.98131        0.417
        7.63825       23.92974        9.41649       -0.834
        8.15940       23.59728        8.68567        0.417
        7.67171       23.23276       10.07173        0.417
        6.40622       24.86130       14.68131       -0.834
        5.77412       24.50465       14.05724        0.417
        7.22250       24.92609       14.18560        0.417
       23.52494       15.65946       16.31752       -0.834
       23.69175       15.42948       17.23161        0.417
       22.60505       15.43485       16.17757        0.417
       27.06301       24.75973       18.55069       -0.834
       26.75714       24.12013       17.90758        0.417
       26.96043       24.31954       19.39446        0.417
        4.58853       15.78283       15.68772       -0.834
        4.57369       15.15523       14.96512        0.417
        5.51672       15.97716       15.81778        0.417
       21.68896       22.16881       17.02140       -0.834
       21.76347       22.25060       16.07059        0.417
       20.86364       22.60370       17.23574        0.417
       29.08238       13.87428       12.94616       -0.834
       28.15166       13.92950       13.16279        0.417
       29.53001       13.95466       13.78842        0.417
       17.39639        3.59911        9.86423       -0.834
       17.92666        4.39359        9.92657        0.417
       17.97282        2.90085       10.17470        0.417
        4.69215       21.16946       24.02867       -0.834
        3.82624       21.25423       24.42773        0.417
        4.92727       20.25069       24.15836        0.417
       15.67986       20.89191       10.76214       -0.834
       15.11721       20.51351       10.08652        0.417
       15.33737       21.77625       10.89207        0.417
        9.53715       17.15090       17.13749       -0.834
        8.73180       16.75002       16.81046        0.417
        9.24702       17.73584       17.83741        0.417
       24.79540       22.54270       22.28537       -0.834
       23.92327       22.86810       22.50838        0.417
       24.68146       22.11199       21.43818        0.417
       22.87670       16.57160       27.29347       -0.834
       23.08664       15.91262       26.63173        0.417
       22.66919       17.35913       26.79053        0.417
        9.76319       18.07013       29.20727       -0.834
       10.01172       18.84202       29.71584        0.417
        9.37250       18.42457       28.40854        0.417
       20.28023        6.67353        5.89974       -0.834
       19.61855        6.80886        5.22143        0.417
       20.55953        7.55641        6.14210        0.417
       18.94775       20.95409       10.19136       -0.834
       18.00669       21.07015       10.32240        0.417
       19.04178       20.04007        9.92311        0.417
       27.23380       17.47124        7.28229       -0.834
       27.46882       17.55716        6.35838        0.417
       28.04677       17.65120        7.75445        0.417
        6.24616       23.40408       25.92020       -0.834
        5.79356       23.45081       25.07806        0.417
        6.78274       22.61366       25.86073        0.417
       14.42083       15.43733        6.81956       -0.834
       14.88563       16.14823        6.37819        0.417
       13.57543       15.38977        6.37316        0.417
       24.21982       15.37332       18.80330       -0.834
       23.77971       15.91939       19.45470        0.417
       23.95940       14.47913       19.02430        0.417
        2.98381        9.67494       14.67972       -0.834
        3.75373        9.38573       14.19001        0.417
        2.48226       10.19590       14.05260        0.417
       18.46991       13.33204        7.27005       -0.834
       19.06168       13.91311        6.79214        0.417
       18.38341       13.73526        8.13386        0.417
       23.41411        9.42414       16.10878       -0.834
       22.68593        9.83172       16.57767        0.417
       24.11005       10.08102       16.12865        0.417
       19.85071        6.68576       12.06581       -0.834
       20.70197        6.80534       12.48687        0.417
       19.30949        6.26510       12.73390        0.417
        3.27699       10.46947       21.93167       -0.834
        3.07166        9.57127       22.19110        0.417
        4.23008       10.48201       21.84398        0.417
       23.37133       25.46800       13.06117       -0.834
       22.46351       25.16465       13.05247        0.417
       23.71857       25.16208       13.89907        0.417
       19.69750        3.05959       13.39952       -0.834
       20.58598        3.10137       13.75318        0.417
       19.31564        3.91207       13.60861        0.417
       23.34308       16.47100       12.44484       -0.834
       23.72619       16.84293       11.65041        0.417
       23.65909       15.56766       12.46348        0.417
        6.60698       13.05943        5.48601       -0.834
        7.55946       12.96587        5.46972        0.417
        6.43728       13.66090        6.21104        0.417
       13.58824       19.73797        9.40157       -0.834
       12.65265       19.54916        9.47401        0.417
       13.64813       20.38991        8.70327        0.417
       24.41297       20.36187        6.49581       -0.834
       24.52601       19.69055        7.16870        0.417
       23.49489       20.62268        6.56886        0.417
       13.55184       30.25425       18.86690       -0.834
       13.35367       29.46555       18.36200        0.417
       12.89620       30.89155       18.58369        0.417
       18.34600       17.34704       26.82823       -0.834
       17.79537       16.65935       27.20254        0.417
       18.99567       16.87658       26.30589        0.417
       26.21102       13.25219       24.77471       -0.834
       26.71494       13.91860       24.30761        0.417
       26.32843       12.45575       24.25689        0.417
       23.36189       18.08646       14.83958       -0.834
       23.20584       17.58195       15.63793        0.417
       23.41730       17.42831       14.14676        0.417
        5.94567       14.67103       25.57608       -0.834
        6.16324       13.76298       25.36549        0.417
        6.60965       15.18870       25.12070        0.417
       27.28471       18.61925       19.30364       -0.834
       27.92357       18.16414       18.75503        0.417
       26.53620       18.76936       18.72621        0.417
       27.30065       21.78930       13.66114       -0.834
       27.90899       22.33757       13.16560        0.417
       27.82347       21.44448       14.38501        0.417
       23.45529       16.04140       23.71896       -0.834
       22.97319       16.67580       24.24939        0.417
       23.62386       15.31036       24.31343        0.417
       26.89412       25.02601        9.23680       -0.834
       25.97032       25.27615        9.25267        0.417
       27.00714       24.57827        8.39835        0.417
       19.94687       25.70288       24.26998       -0.834
       19.72440       24.90108       24.74311        0.417
       19.19940       26.28277       24.41573        0.417
        6.48211       17.41879       10.21168       -0.834
        5.65491       16.94478       10.12625        0.417
        6.88341       17.06043       11.00336        0.417
       18.68832        6.03252        9.79107       -0.834
       19.08094        6.26208       10.63331        0.417
       19.43129        5.95879        9.19208        0.417
       15.97221       13.69539       25.76013       -0.834
       15.65635       13.77184       24.85978        0.417
       15.47497       12.96470       26.12766        0.417
       23.49210       13.46618        4.90436       -0.834
       23.68065       14.37247        5.14791        0.417
       23.87507       13.36728        4.03270        0.417
       12.08240       22.41937       15.55934       -0.834
       12.98676       22.16666       15.74511        0.417
       11.75846       21.73696       14.97145        0.417
       27.31832       10.62472       16.53762       -0.834
       27.88384       10.64944       17.30953        0.417
       27.85193       10.99983       15.83706        0.417
       14.06602       23.17948       10.33051       -0.834
       13.86808       23.42533        9.42685        0.417
       13.49554       23.73568       10.86100        0.417
        2.37112       19.94408       22.03685       -0.834
        3.28056       20.20310       22.18542        0.417
        2.13625       20.35820       21.20644        0.417
        2.19297       17.21281       21.69763       -0.834
        2.74314       16.79329       22.35909        0.417
        2.37964       18.14730       21.78775        0.417
       20.01580       30.34585       17.11962       -0.834
       19.62177       30.54251       16.26972        0.417
       19.34930       30.60028       17.75780        0.417
       24.45580       13.46353       29.94882       -0.834
       25.27054       13.96576       29.96288        0.417
       24.26003       13.34976       29.01878        0.417
       23.20560        4.59182       12.93125       -0.834
       23.70510        3.82594       12.64808        0.417
       22.61882        4.25814       13.60991        0.417
        7.34016       15.13812       16.88203       -0.834
        7.90901       14.76781       17.55694        0.417
        7.02344       14.37919       16.39218        0.417
        8.02331       13.16549       18.68289       -0.834
        7.93959       12.96077       19.61419        0.417
        8.32654       12.34982       18.28419        0.417
       23.99409       18.32057       22.05851       -0.834
       23.95340       17.40299       22.32799        0.417