%Nproc=32
%Mem=120Gb
%chk=temp.chk
#p cam-b3lyp/6-31+G(d,p) nosymm charge Freq 

Calculation for S0 with freq for abs spect

0  1
 C         15.67001       17.52951       16.07990
 C         17.29263       15.73382       15.50664
 C         17.69386       15.59301       16.75284
 C         17.02629       16.30618       17.76575
 N         16.02668       17.20797       17.42578
 H         17.67125       15.12497       14.63812
 H         18.45954       14.96849       17.03646
 O         17.17321       16.07324       18.97937
 O         14.84122       18.33227       15.79511
 N         16.36929       16.69331       15.18925
 H         15.95504       16.77448       14.32139
 H         15.50575       17.72944       18.15479
 O         19.11298       18.21220       13.92658
 H         18.29830       18.58425       14.26437
 H         19.56671       18.95309       13.52478
 O         12.50841       15.69630       19.65868
 H         12.46030       16.25010       18.87944
 H         11.95621       16.13968       20.30267
 O         12.78296       18.86600       15.44913
 H         11.97697       19.32300       15.20877
 H         13.48038       19.49356       15.25940
 O         16.02286       16.49471       20.49165
 H         15.20166       16.02674       20.64283
 H         15.75575       17.33132       20.11091
 O         12.09650       16.88598       17.16225
 H         11.78713       16.18945       16.58315
 H         12.36119       17.59023       16.57047
 O         14.20141       14.90928       12.23242
 H         13.87760       14.86644       11.33267
 H         15.15284       14.96384       12.14272
 O         14.53599       19.00987       20.32969
 H         13.85865       18.82289       20.97968
 H         14.27436       19.84602       19.94417
 O         17.64941       14.44978       20.75243
 H         16.99747       15.14170       20.64083
 H         17.46228       14.08069       21.61556
 O         13.68291       13.09276       16.74820
 H         12.78492       13.31990       16.98957
 H         13.99515       12.54806       17.47072
 O         15.22179       20.71035       14.06836
 H         14.94098       20.91590       14.96006
 H         15.99071       20.15165       14.18168
 O         12.88603       15.88925       14.30463
 H         13.28843       15.49600       13.53025
 H         12.37848       16.62565       13.96356
 O         19.01290       15.50421       13.55287
 H         19.22644       16.43510       13.61673
 H         19.33790       15.12681       14.37029
 O         18.47934       19.73692       20.14033
 H         18.56780       19.74454       21.09341
 H         17.57276       19.99972       19.98135
 O         14.67947       13.13977       14.31338
 H         14.60041       13.95820       13.82333
 H         14.14250       13.27475       15.09420
 O         19.20025       12.72948       15.21975
 H         19.72717       12.58949       16.00652
 H         18.29786       12.75988       15.53754
 O         16.69994       12.02880       15.87228
 H         15.97071       12.21319       15.28029
 H         16.33021       12.13486       16.74880
 O         16.75849       14.51871       11.89086
 H         17.23911       14.56410       11.06432
 H         17.43911       14.50359       12.56373
 O         20.69109       14.87776       19.66050
 H         20.35391       14.95765       20.55277
 H         19.91881       14.97153       19.10281
 O         20.73140       18.25913       18.78382
 H         20.29620       17.45004       18.51512
 H         20.09527       18.69752       19.34896
 
       24.63523       10.26929       12.45170       -0.834
       25.42437        9.73343       12.37206        0.417
       24.87122       11.10526       12.04958        0.417
       25.61852       24.38053       17.26661       -0.834
       25.05066       25.08645       17.57555        0.417
       25.17390       24.03651       16.49189        0.417
       14.61440       22.22093        2.82004       -0.834
       14.79744       21.29100        2.95407        0.417
       15.19433       22.67067        3.43457        0.417
        7.51407       21.83720        5.00748       -0.834
        8.14207       21.35488        5.54527        0.417
        7.36480       22.65266        5.48598        0.417
        4.52069       16.66147       23.57409       -0.834
        4.72068       16.78176       24.50241        0.417
        5.03957       15.90050       23.31346        0.417
       17.20586       16.16889        8.51609       -0.834
       17.12363       16.69091        9.31419        0.417
       16.62558       16.59837        7.88756        0.417
       17.08395        5.44459       17.25013       -0.834
       17.82582        4.87995       17.46701        0.417
       16.81208        5.15918       16.37786        0.417
        4.87313        8.71945       12.16515       -0.834
        4.77241        8.93667       13.09192        0.417
        5.60644        8.10470       12.14106        0.417
        8.91884        4.60417       10.83141       -0.834
        9.07770        5.31458       11.45295        0.417
        7.96878        4.48768       10.83779        0.417
       14.04639       13.87821       20.98444       -0.834
       14.54052       13.28474       20.41887        0.417
       13.52340       14.40541       20.38047        0.417
       12.22134        9.16532       16.84332       -0.834
       12.42436       10.09999       16.88092        0.417
       12.51398        8.82202       17.68756        0.417
       14.06219        9.64215       24.60348       -0.834
       13.19602        9.66854       25.01004        0.417
       14.47935        8.86611       24.97760        0.417
       13.33607        9.87483        8.35815       -0.834
       13.95512        9.15559        8.48346        0.417
       12.93540        9.99926        9.21851        0.417
       22.19370        4.74436       19.89172       -0.834
       22.97629        4.91662       19.36816        0.417
       22.37971        5.14572       20.74056        0.417
       21.75006       13.92857        3.71547       -0.834
       22.46773       13.33582        3.49225        0.417
       21.59157       14.42629        2.91336        0.417
       25.99455        7.49885       16.85779       -0.834
       26.18163        7.38335       15.92618        0.417
       25.80832        8.43311       16.95114        0.417
        9.08538       11.36333       11.13079       -0.834
        8.13683       11.31982       11.01003        0.417
        9.21944       12.11383       11.70959        0.417
       18.78213       15.63650       29.84872       -0.834
       18.01561       15.77094       30.40604        0.417
       19.19883       16.49698       29.80210        0.417
       11.10910       11.99470        4.43411       -0.834
       11.08036       11.09072        4.74751        0.417
       10.50351       12.01114        3.69301        0.417
       28.11479       14.77130        8.36731       -0.834
       28.94041       14.66935        8.84077        0.417
       28.10440       15.68979        8.09804        0.417
       11.23262       11.38204       20.02994       -0.834
       10.69230       10.72886       19.58539        0.417
       11.92578       11.58734       19.40255        0.417
       20.26445       10.01307       26.37517       -0.834
       19.33853       10.14514       26.57880        0.417
       20.70213       10.02996       27.22627        0.417
        2.80939       13.82813       13.33973       -0.834
        3.59927       13.88506       13.87739        0.417
        2.53466       12.91412       13.41286        0.417
       14.82210        7.62020        9.14164       -0.834
       14.72273        8.01122       10.00966        0.417
       15.65672        7.15334        9.18285        0.417
        5.94354        9.95446        8.50988       -0.834
        6.10938       10.47824        7.72606        0.417
        4.99195        9.97031        8.61221        0.417
       17.12477       29.83028       17.74011       -0.834
       17.92181       30.16017       18.15500        0.417
       16.51838       29.68555       18.46646        0.417
       20.77002       26.77849        8.68278       -0.834
       19.84302       26.60891        8.51499        0.417
       20.84103       26.80066        9.63709        0.417
       22.91142       23.33859       11.47118       -0.834
       22.63273       22.74401       10.77473        0.417
       23.62694       22.87717       11.90862        0.417
       15.78171       22.29192       12.09455       -0.834
       16.19261       21.75365       11.41804        0.417
       15.62815       21.68813       12.82124        0.417
       15.57370       17.51306        6.91774       -0.834
       14.71959       17.51683        7.34984        0.417
       15.39883       17.16480        6.04347        0.417
       10.03159       15.48448       12.61311       -0.834
       10.01600       15.68447       11.67716        0.417
        9.83128       16.31753       13.03988        0.417
       17.69834       26.54110       19.08567       -0.834
       18.24702       26.22165       19.80201        0.417
       18.30315       27.01030       18.51097        0.417
       11.15458       18.51512       12.71127       -0.834
       11.27676       19.40121       13.05207        0.417
       11.59135       18.52323       11.85956        0.417
       15.52285       13.52379        2.85347       -0.834
       14.59323       13.62557        3.05763        0.417
       15.74168       12.64482        3.16290        0.417
       16.21652        4.26474       15.03779       -0.834
       16.13415        3.32843       14.85679        0.417
       16.60829        4.62905       14.24405        0.417
       11.25350       16.00023        3.51509       -0.834
       10.44629       16.42180        3.22027        0.417
       11.78723       16.71706        3.85792        0.417
       11.88828        5.84264       10.16529       -0.834
       11.75741        5.02221       10.64069        0.417
       12.49840        5.61821        9.46272        0.417
       18.29271       10.65091        6.86439       -0.834
       17.38875       10.38954        6.68897        0.417
       18.52331       10.19067        7.67138        0.417
       27.56224       19.56127       23.28237       -0.834
       26.81426       19.17877       22.82362        0.417
       28.30360       19.00856       23.03517        0.417
       21.89783       26.03061       15.68454       -0.834
       22.60435       26.64965       15.50059        0.417
       21.94524       25.88624       16.62960        0.417
       30.09700       13.65871       16.94911       -0.834
       29.40899       14.29994       17.12715        0.417
       30.60232       14.04175       16.23206        0.417
       27.55704       12.01138       10.22354       -0.834
       28.45136       12.14758        9.91072        0.417
       27.63786       11.33225       10.89323        0.417
        6.30091       10.83964       11.09400       -0.834
        6.21783       10.75409       10.14426        0.417
        5.82748       10.08548       11.44522        0.417
       14.92544       31.13742       16.32673       -0.834
       14.18822       30.57098       16.55452        0.417
       15.62052       30.88227       16.93335        0.417
       20.93100       26.45310       21.34085       -0.834
       21.09798       26.72278       20.43773        0.417
       20.07474       26.82714       21.54858        0.417
       22.63885        9.64779       24.48122       -0.834
       22.66861        9.21479       25.33436        0.417
       22.03558       10.38059       24.60493        0.417
       16.61814       17.99126       28.02107       -0.834
       16.82059       18.16658       28.94004        0.417
       15.74710       17.59475       28.03864        0.417
        3.98540       24.49575       12.92167       -0.834
        3.34979       23.84716       13.22427        0.417
        4.63659       24.53846       13.62193        0.417
       23.77962        8.96582        9.58209       -0.834
       23.65623        8.80471        8.64665        0.417
       23.24789        9.74059        9.76436        0.417
        4.29990       15.55415       18.90307       -0.834
        3.97243       15.25115       19.74994        0.417
        4.94332       16.22824       19.12179        0.417
       13.39495        3.72227       20.61805       -0.834
       13.84276        3.71149       19.77213        0.417
       14.09824        3.81480       21.26074        0.417
       10.11675       24.74466        9.87103       -0.834
       10.77515       24.42951       10.49024        0.417
        9.48220       25.21325       10.41325        0.417
        7.39974       22.29821       26.75611       -0.834
        7.56903       23.11595       27.22396        0.417
        7.01101       22.57289       25.92565        0.417
        7.34496       18.81496       18.19009       -0.834
        8.23212       18.92605       18.53190        0.417
        7.42917       18.96954       17.24922        0.417
       10.98920        4.42587       20.86398       -0.834
       11.92782        4.25143       20.79470        0.417
       10.57539        3.70410       20.39065        0.417
       15.63630       13.66904        7.61451       -0.834
       16.06453       13.66112        6.75848        0.417
       16.25651       14.11800        8.18897        0.417
        7.18933       16.69530        9.44217       -0.834
        7.55071       16.04074       10.03981        0.417
        6.26972       16.44862        9.34369        0.417
       11.64270       28.29914       10.15747       -0.834
       12.30730       27.61028       10.16130        0.417
       11.02477       28.04026       10.84112        0.417
        4.92251       24.58661       15.84127       -0.834
        4.05127       24.98302       15.83526        0.417
        5.47678       25.23197       16.28004        0.417
       26.33235       17.85274       11.18380       -0.834
       26.12773       17.28239       10.44281        0.417
       25.67831       17.62964       11.84614        0.417
       18.60800       27.74301       12.15613       -0.834
       19.38846       27.69943       12.70860        0.417
       17.89152       27.47462       12.73132        0.417
       28.72689        6.89230       17.35825       -0.834
       27.81994        6.81323       17.06264        0.417
       28.99205        5.99534       17.56173        0.417
       26.26480        8.01453       11.53857       -0.834
       26.55073        7.25056       11.03774        0.417
       25.38548        8.20158       11.20988        0.417
       23.99087       10.96705       14.94379       -0.834
       24.22660       10.75041       14.04171        0.417
       23.29916       11.62337       14.86006        0.417
       22.68884       11.58626        8.59940       -0.834
       23.26427       11.46127        7.84476        0.417
       21.80711       11.60964        8.22759        0.417
       19.63915       18.37990       30.18975       -0.834
       19.86718       19.07177       30.81068        0.417
       18.75302       18.11683       30.43834        0.417
       27.31734       21.74482       12.44901       -0.834
       26.45159       21.90275       12.82553        0.417
       27.13915       21.38520       11.58002        0.417
       13.95978        5.78497       15.20299       -0.834
       14.88094        5.54531       15.10168        0.417
       13.54832        5.00479       15.57481        0.417
       20.38296       12.19577        7.44377       -0.834
       19.62691       11.62905        7.29067        0.417
       20.16074       13.01640        7.00397        0.417
       18.29560       23.93870       22.36940       -0.834
       19.13165       24.18050       21.97092        0.417
       18.03175       24.71499       22.86336        0.417
       11.17492        8.13327       11.23074       -0.834
       11.79550        8.76106       10.86062        0.417
       11.51740        7.27722       10.97361        0.417
        1.93655       12.73937       16.74604       -0.834
        2.23623       12.70977       15.83745        0.417
        2.64331       12.33016       17.24531        0.417
       14.29243       16.60140       27.85624       -0.834
       13.64871       16.50664       28.55829        0.417
       14.66817       15.72681       27.75550        0.417
       21.83048       25.19615       26.07825       -0.834
       20.94396       24.86851       26.22978        0.417
       21.81913       26.08831       26.42490        0.417
        4.43561       20.93991       10.20412       -0.834
        3.48370       21.02596       10.25612        0.417
        4.59995       20.00666       10.33927        0.417
       21.14183        7.41067        8.44059       -0.834
       21.88138        7.86868        8.04119        0.417
       21.38864        6.48626        8.41268        0.417
       13.89121       28.37891       12.28658       -0.834
       13.98461       29.00015       11.56438        0.417
       13.31231       28.81941       12.90872        0.417
       22.46845        8.21636       21.97074       -0.834
       23.22499        8.67775       21.60880        0.417
       22.33809        8.60926       22.83380        0.417
       15.57958        1.44567       14.78579       -0.834
       14.84909        1.77527       15.30921        0.417
       15.16566        0.92770       14.09542        0.417
       15.08786       26.44948       19.38427       -0.834
       15.16044       25.92416       20.18114        0.417
       15.99326       26.64142       19.14005        0.417
       23.43415       11.81414       28.38946       -0.834
       23.60791       12.59112       27.85810        0.417
       22.49202       11.84315       28.55611        0.417
       12.86991       29.89771       22.66665       -0.834
       12.06904       29.77778       23.17700        0.417
       13.57608       29.66871       23.27090        0.417
        8.55115       20.18178       29.43199       -0.834
        8.17434       20.07023       28.55918        0.417
        7.97756       19.67577       30.00748        0.417
        6.00834       14.34393       23.30636       -0.834
        5.19034       13.85049       23.24624        0.417
        6.41927       14.03010       24.11189        0.417
       16.96894       19.64528        5.44339       -0.834
       17.84845       19.27522        5.36756        0.417
       16.59182       19.21273        6.20949        0.417
       13.24808       12.10560       12.04136       -0.834
       13.73136       12.19072       12.86320        0.417
       13.74217       12.63612       11.41634        0.417
        6.74928        9.56425       16.07484       -0.834
        7.69452        9.55177       15.92450        0.417
        6.40669        8.87477       15.50609        0.417
       27.01970       16.78244       19.42706       -0.834
       27.48642       16.15524       18.87478        0.417
       27.62005       17.52347       19.50879        0.417
       26.17699       10.38257        7.59195       -0.834
       26.61126        9.53856        7.46827        0.417
       25.60328       10.24897        8.34643        0.417
        9.54115        9.33955       16.04022       -0.834
       10.32178        8.98907       16.46918        0.417
        9.71198        9.23050       15.10472        0.417
       22.92429       17.75058       16.75573       -0.834
       22.19068       18.06604       17.28349        0.417
       23.69658       18.15197       17.15408        0.417
       16.00614       29.06233       22.44297       -0.834
       16.26526       29.86545       22.89473        0.417
       16.06931       28.37999       23.11129        0.417
       10.49093       18.78352       18.80840       -0.834
       10.70898       18.11203       19.45476        0.417
       10.90245       18.48025       17.99914        0.417
       20.33168       18.54116       10.17769       -0.834
       20.43326       17.75699        9.63826        0.417
       20.65926       19.25389        9.62911        0.417
       19.02516       19.47657       23.01454       -0.834
       18.48260       18.68970       22.96258        0.417
       19.32389       19.50249       23.92357        0.417
       12.38279       26.11031       18.90262       -0.834
       12.06932       26.79416       19.49451        0.417
       13.33214       26.23026       18.87871        0.417
       31.42895       16.46015       11.58508       -0.834
       31.71942       17.21340       12.09936        0.417
       30.47433       16.52976       11.57561        0.417
       23.07289       14.29594        7.16796       -0.834
       23.88763       13.95043        7.53273        0.417
       22.50142       13.53192        7.09093        0.417
       12.09660       23.89700       11.51449       -0.834
       12.90285       23.72339       11.02864        0.417
       12.36464       24.48211       12.22303        0.417
       16.86030       29.64387       14.95368       -0.834
       16.21133       30.20180       14.52501        0.417
       16.62798       29.67496       15.88174        0.417
       28.81943       15.56628       21.41048       -0.834
       29.11050       14.89959       20.78837        0.417
       28.52509       15.06979       22.17409        0.417
        2.42354       20.53946       16.01101       -0.834
        1.56538       20.76276       16.37148        0.417
        3.04916       20.91407       16.63109        0.417
        9.48531       25.61855       20.42675       -0.834
        9.85719       26.30417       20.98160        0.417
        9.47552       25.99943       19.54865        0.417
       29.73856       21.12265       10.40479       -0.834
       30.15168       21.58693        9.67678        0.417
       28.82901       21.00646       10.13009        0.417
       22.25672        8.48655       15.59137       -0.834
       22.67844        9.34014       15.69018        0.417
       22.39550        8.05149       16.43262        0.417
       13.81693        3.03522       12.70099       -0.834
       12.95458        3.44601       12.63902        0.417
       14.39233        3.60732       12.19320        0.417
        3.47206       18.61970       20.31789       -0.834
        3.50205       19.57236       20.40601        0.417
        2.74576       18.45711       19.71598        0.417
       19.52643        9.27352        9.11691       -0.834
       19.84432        9.50425        9.98980        0.417
       20.10950        8.57201        8.82683        0.417
       20.90135       21.24285       22.47432       -0.834
       20.35917       20.45886       22.56165        0.417
       21.35164       21.13119       21.63706        0.417
       18.87970        3.26233       17.06514       -0.834
       18.40049        2.43520       17.01568        0.417
       19.73187        3.02449       17.43047        0.417
       31.50650       14.54944       14.59458       -0.834
       30.88351       14.56975       13.86815        0.417
       32.30176       14.94693       14.23990        0.417
       21.88118       17.02518       11.86594       -0.834
       21.70933       16.09456       11.72223        0.417
       21.30338       17.47402       11.24875        0.417
       28.34155       23.78613       19.05173       -0.834
       27.39409       23.69664       18.94923        0.417
       28.45854       24.07939       19.95536        0.417
       10.48146        7.16659       27.39812       -0.834
       10.12715        7.55003       28.20040        0.417
       10.11959        7.70530       26.69451        0.417
        7.35640       13.87050       10.23890       -0.834
        8.00723       13.31544        9.80929        0.417
        6.59784       13.84636        9.65560        0.417
       16.58795       19.88973       25.89257       -0.834
       16.70461       19.14882       26.48728        0.417
       17.26941       20.51171       26.14751        0.417
       24.92176       25.77097       13.31647       -0.834
       24.43398       25.67797       12.49815        0.417
       25.83319       25.87284       13.04232        0.417
       24.06970       27.45436       15.46523       -0.834
       24.38173       26.76250       14.88196        0.417
       23.98364       28.22299       14.90129        0.417
       10.19089       21.28431       22.68456       -0.834
        9.84832       21.66873       21.87765        0.417
        9.65565       20.50316       22.82434        0.417
       15.22651       19.42912        3.08431       -0.834
       15.61811       19.64608        3.93037        0.417
       14.83033       18.56792        3.21701        0.417
        7.75352       26.09452       10.47753       -0.834
        6.88604       25.70917       10.35417        0.417
        7.69389       26.95664       10.06591        0.417
       10.70345       14.13024       15.02833       -0.834
       11.27555       14.45844       14.33463        0.417
       10.10289       14.85397       15.20659        0.417
       23.63184       14.87454       16.46971       -0.834
       23.94102       14.90222       15.56424        0.417
       23.25675       15.74195       16.62184        0.417
       23.32356       22.12829       23.65423       -0.834
       23.01102       23.01160       23.84996        0.417
       22.57072       21.68969       23.25787        0.417
       25.48901       14.85410       20.61535       -0.834
       26.08967       15.22262       19.96756        0.417
       24.64731       14.80589       20.16209        0.417
       15.97217       27.78749       27.22803       -0.834
       16.30834       28.66441       27.04301        0.417
       16.72763       27.21134       27.11153        0.417
       11.31367        3.57115       11.35089       -0.834
       10.49815        3.76790       10.88997        0.417
       11.27544        2.62885       11.51469        0.417
        5.84464        7.38038       14.96823       -0.834
        6.38726        6.59502       15.03894        0.417
        4.96687        7.08857       15.21437        0.417
       16.84970       17.74736       30.82731       -0.834
       17.29363       17.96728       31.64633        0.417
       15.91777       17.82833       31.03023        0.417
       19.53030        5.79961       26.43905       -0.834
       19.68478        5.64350       25.50739        0.417
       19.20661        6.69943       26.48117        0.417
        8.08593       14.00401       21.67947       -0.834
        8.54922       13.20719       21.93769        0.417
        7.46705       14.16341       22.39208        0.417
       21.52023       18.48000       28.21631       -0.834
       21.59646       19.41977       28.05118        0.417
       20.85629       18.40995       28.90224        0.417
       12.97159       29.72616       17.65344       -0.834
       12.84732       30.38742       18.33426        0.417
       12.21940       29.14155       17.74655        0.417
       15.55059       16.07242        4.45527       -0.834
       15.47733       15.23535        3.99681        0.417
       14.65577       16.41137        4.48045        0.417
       14.27444       11.25273       18.53033       -0.834
       14.96395       11.51140       19.14179        0.417
       14.50763       10.36205       18.26850        0.417
       15.04935       11.44249       26.43299       -0.834
       14.69352       10.97394       25.67795        0.417
       14.64341       12.30834       26.39122        0.417
       13.22849        9.95906       21.09320       -0.834
       13.49910        9.62485       20.23803        0.417
       12.69210       10.72598       20.89236        0.417
       12.05110       19.11280       22.59685       -0.834
       11.72057       20.00986       22.64448        0.417
       11.99714       18.78911       23.49604        0.417
       21.60147       12.69226       13.74203       -0.834
       21.04953       12.50646       14.50169        0.417
       21.38635       12.00216       13.11456        0.417
       25.35982       18.24223       22.45179       -0.834
       25.22470       18.76932       21.66429        0.417
       25.54155       17.36182       22.12304        0.417
       23.22568        7.07105       17.81227       -0.834
       24.00740        7.58865       18.00526        0.417
       22.56786        7.39044       18.42993        0.417
       11.68086       20.18140        3.36205       -0.834
       12.49246       20.68591        3.30723        0.417
       11.29041       20.25959        2.49161        0.417
       23.35362       27.15315        7.99927       -0.834
       22.44699       26.92005        8.19909        0.417
       23.63843       27.67435        8.74991        0.417
       28.15077       19.27528       19.63893       -0.834
       28.80701       19.41119       20.32238        0.417
       27.40512       19.80946       19.91258        0.417
       25.63312       17.28123       26.66475       -0.834
       24.93150       17.80373       26.27623        0.417
       26.38719       17.42994       26.09423        0.417
       13.76375       13.12706       23.78307       -0.834
       12.83401       13.18726       23.56357        0.417
       14.21648       13.27751       22.95323        0.417
        9.03853       21.47252       17.22139       -0.834
        9.91713       21.68603       16.90720        0.417
        8.45704       21.74494       16.51154        0.417
       19.54709        9.38072       11.82145       -0.834
       18.88150        9.68353       12.43913        0.417
       20.37987        9.59668       12.24106        0.417
       18.93096       11.02518       21.80048       -0.834
       18.97106       10.26499       22.38076        0.417
       19.06548       11.77594       22.37883        0.417