%Nproc=32
%Mem=120Gb
%chk=temp.chk
#p cam-b3lyp/6-31+G(d,p) nosymm charge Freq 

Calculation for S0 with freq for abs spect

0  1
 C         15.67001       17.52951       16.07990
 C         17.29263       15.73382       15.50664
 C         17.69386       15.59301       16.75284
 C         17.02629       16.30618       17.76575
 N         16.02668       17.20797       17.42578
 H         17.67125       15.12497       14.63812
 H         18.45954       14.96849       17.03646
 O         17.17321       16.07324       18.97937
 O         14.84122       18.33227       15.79511
 N         16.36929       16.69331       15.18925
 H         15.95504       16.77448       14.32139
 H         15.50575       17.72944       18.15479
 O         15.82814       15.30978       11.31512
 H         16.40028       14.55321       11.18673
 H         16.22084       15.78626       12.04654
 O         12.32296       19.45247       16.10536
 H         12.04002       19.44638       17.01977
 H         13.27600       19.37451       16.14852
 O         14.25011       15.41315       18.91262
 H         14.40941       16.35604       18.95502
 H         15.11585       15.02955       18.77271
 O         19.20979       18.23593       14.27102
 H         19.69385       17.48512       14.61482
 H         19.85252       18.94480       14.24596
 O         17.89776       20.10654       15.52403
 H         17.22067       20.39543       14.91222
 H         18.36868       19.41871       15.05355
 O         18.47710       18.63013       20.43689
 H         19.11662       19.21622       20.03223
 H         18.85734       18.41052       21.28742
 O         15.05876       21.46679       17.13279
 H         15.28225       20.67421       16.64483
 H         14.15389       21.65486       16.88363
 O         14.04995       18.16993       20.23417
 H         13.69469       17.60383       20.91941
 H         14.83364       18.55665       20.62471
 O         13.48764       13.06214       15.58656
 H         13.24414       12.35726       14.98649
 H         14.37524       13.30539       15.32345
 O         18.81133       21.00808       17.99146
 H         18.21264       20.39182       17.56954
 H         19.62382       20.93427       17.49082
 O         12.06835       14.50523       17.22232
 H         12.69739       15.01616       17.73172
 H         12.60706       13.89733       16.71586
 O         16.80145       13.73760       19.34934
 H         17.54538       13.14610       19.23565
 H         16.47604       13.54758       20.22924
 O         20.97162       16.31346       15.43186
 H         21.87087       16.16054       15.72203
 H         20.60268       15.43711       15.32172
 O         18.88836       12.98238       16.65258
 H         19.21395       12.84955       17.54285
 H         19.64220       12.79988       16.09163
 O         15.68124       12.74891       13.10070
 H         16.07986       13.46242       13.59894
 H         16.40580       12.36933       12.60354
 O         13.13902       16.74712       13.77901
 H         12.93052       16.42864       12.90075
 H         13.33948       17.67504       13.65650
 O         17.80486       16.18788       12.81670
 H         18.12897       17.00412       13.19740
 H         18.43301       15.52417       13.10156
 O         11.92087       18.40130       18.53799
 H         12.77175       18.37688       18.97575
 H         11.46272       17.62519       18.86045
 
       17.76220       27.15348       21.91943       -0.834
       18.00726       26.52347       21.24174        0.417
       18.17872       26.82366       22.71565        0.417
       18.37672        7.18382       10.94783       -0.834
       18.30551        7.75963       10.18651        0.417
       18.23063        6.30475       10.59835        0.417
        6.53262       20.41346        9.49977       -0.834
        6.79364       19.61871        9.96503        0.417
        7.20074       20.52611        8.82364        0.417
       29.98746       16.16125       13.04671       -0.834
       30.61090       16.88724       13.02446        0.417
       29.19381       16.53802       13.42672        0.417
       21.19302       18.61968       11.69913       -0.834
       20.30930       18.35283       11.95221        0.417
       21.11649       18.85766       10.77514        0.417
       12.97441       12.61366       27.50962       -0.834
       13.24034       13.39123       28.00044        0.417
       13.79758       12.21416       27.22850        0.417
        9.33238       19.95340        6.54206       -0.834
        9.66948       19.25690        7.10553        0.417
       10.11285       20.42328        6.24827        0.417
       13.13960        9.49868       14.83266       -0.834
       13.83978        9.99630       14.41034        0.417
       13.58643        8.96815       15.49229        0.417
       22.34416       15.31427       26.59304       -0.834
       22.14839       16.07884       26.05142        0.417
       22.93235       14.78374       26.05564        0.417
       12.21387       13.80004        8.57474       -0.834
       11.47269       13.23833        8.80138        0.417
       12.53991       14.11844        9.41649        0.417
        9.18694       25.19760       26.17646       -0.834
        8.66863       24.86720       26.91022        0.417
        8.64194       25.03704       25.40612        0.417
        8.78354       12.35002       24.04930       -0.834
        8.21817       13.12198       24.07520        0.417
        8.18051       11.61439       23.94232        0.417
       20.40973       30.58233       15.08545       -0.834
       20.54762       31.52943       15.10052        0.417
       21.09338       30.24950       14.50401        0.417
       24.62428        8.41231       26.25426       -0.834
       25.41584        8.06072       25.84677        0.417
       24.50876        9.27277       25.85115        0.417
       15.19792       18.06546        4.09530       -0.834
       15.88210       17.44830        3.83599        0.417
       14.94504       18.49966        3.28059        0.417
        9.15389        9.24312        8.80818       -0.834
        9.50741        8.69128        8.11051        0.417
        8.39401        8.76074        9.13395        0.417
        7.16222       12.32474       13.25752       -0.834
        6.46878       12.26915       12.60004        0.417
        7.04569       13.18678       13.65694        0.417
        7.73515       16.29831       21.02913       -0.834
        8.44571       16.11517       20.41448        0.417
        7.76186       17.24735       21.15097        0.417
       24.38894        8.83484       21.59137       -0.834
       23.84002        8.17358       22.01285        0.417
       24.26029        9.62422       22.11726        0.417
       25.47916        5.79816       18.47760       -0.834
       25.97866        6.41200       19.01606        0.417
       25.32346        5.04767       19.05097        0.417
        2.17039       19.34595       18.21259       -0.834
        2.99738       19.55218       18.64829        0.417
        2.19552       19.84983       17.39915        0.417
        6.23299        8.86086       20.07861       -0.834
        5.70545        8.28417       20.63120        0.417
        5.72874        8.94505       19.26937        0.417
       21.47318       13.67557        9.97434       -0.834
       21.82262       13.10931       10.66243        0.417
       21.86699       13.34378        9.16746        0.417
       26.30646       22.77115       13.75284       -0.834
       27.12538       23.04105       13.33721        0.417
       25.62411       23.21538       13.24956        0.417
        7.95536       23.72242        9.78090       -0.834
        7.26179       23.11351        9.52705        0.417
        7.62185       24.58397        9.53043        0.417
       26.76327       25.79206       13.12174       -0.834
       25.88925       26.16564       13.23467        0.417
       26.88346       25.74505       12.17328        0.417
       20.49475        5.51515       20.33997       -0.834
       19.81750        5.02632       19.87241        0.417
       21.27044        5.44227       19.78390        0.417
       11.98299       15.31303       20.77467       -0.834
       12.65483       14.94378       20.20151        0.417
       11.19960       15.36040       20.22668        0.417
       19.41826       21.43136       13.44810       -0.834
       18.49999       21.68181       13.54957        0.417
       19.88875       22.26290       13.38960        0.417
       21.57488        4.74766       15.15278       -0.834
       22.03802        4.38505       14.39763        0.417
       20.85908        5.25736       14.77321        0.417
       27.40734       18.43802       12.35822       -0.834
       27.88360       18.34343       11.53331        0.417
       27.89153       19.10912       12.83928        0.417
       14.47466       31.73668       14.72133       -0.834
       14.52844       30.78139       14.74869        0.417
       14.85556       32.02238       15.55171        0.417
       10.26596       18.92041       11.20073       -0.834
       10.49314       19.67934       10.66347        0.417
       10.71250       18.18592       10.77959        0.417
       11.45873       21.32571        9.79180       -0.834
       11.62771       21.80160        8.97866        0.417
       11.06677       21.97672       10.37386        0.417
       13.87194       19.15261       12.71671       -0.834
       14.53226       19.44018       12.08621        0.417
       13.40613       19.95316       12.95832        0.417
        9.25445       25.79204       16.07627       -0.834
        8.85460       26.61701       15.80097        0.417
       10.19116       25.91671       15.92380        0.417
        4.73921       16.99238       17.93187       -0.834
        4.05337       17.02548       17.26497        0.417
        5.55665       17.06593       17.43932        0.417
       15.45960       25.16392       24.56233       -0.834
       15.21192       24.38285       24.06754        0.417
       16.38966       25.28445       24.37078        0.417
        8.18263        5.13842       15.65821       -0.834
        9.01597        4.78146       15.96538        0.417
        8.25921        6.08208       15.79922        0.417
       17.35354       18.88320       26.25044       -0.834
       16.80996       19.62213       26.52382        0.417
       18.23747       19.24530       26.18903        0.417
       19.84733       11.49429        7.02945       -0.834
       19.19709       12.15630        6.79458        0.417
       20.65957       11.98687        7.14718        0.417
       20.71276       25.89982       11.70740       -0.834
       20.91295       26.25681       12.57269        0.417
       21.47846       26.11643       11.17541        0.417
       21.28509       24.57823       24.46655       -0.834
       20.51708       25.10385       24.69042        0.417
       20.98819       24.01017       23.75564        0.417
       16.24612       15.20103       30.60454       -0.834
       16.67893       15.25709       31.45646        0.417
       16.80291       14.61623       30.09050        0.417
       24.32293       13.25280       15.73344       -0.834
       24.00388       13.87801       15.08263        0.417
       24.36765       12.41972       15.26418        0.417
       10.51348        8.05805        6.65109       -0.834
       11.39580        8.31775        6.38596        0.417
       10.08447        7.79861        5.83569        0.417
        9.92267       16.00316       18.84928       -0.834
        9.16514       16.11608       18.27515        0.417
       10.51478       15.43508       18.35640        0.417
       14.21939       14.64491       28.84163       -0.834
       14.77820       14.83039       29.59632        0.417
       14.10049       15.49426       28.41654        0.417
        8.40438       13.42038        7.62880       -0.834
        9.05618       12.97002        8.16599        0.417
        7.64650       13.52064        8.20482        0.417
       16.12190        3.53430       17.97250       -0.834
       16.05312        3.67675       17.02846        0.417
       17.00947        3.81628       18.19372        0.417
       15.75360       13.16298       21.68712       -0.834
       14.98651       13.62176       22.02964        0.417
       15.58477       12.23971       21.87500        0.417
       27.43969       20.04634        7.42841       -0.834
       27.25843       20.70152        8.10230        0.417
       27.65758       19.25293        7.91754        0.417
        6.53534       22.34027       19.61137       -0.834
        6.24129       21.43144       19.67286        0.417
        6.86778       22.42501       18.71776        0.417
       16.81985       26.86423       16.67680       -0.834
       16.80324       27.09736       17.60502        0.417
       16.21896       26.12262       16.60483        0.417
       21.73824       22.44901       28.36062       -0.834
       21.83614       22.63604       29.29425        0.417
       21.95691       23.27358       27.92646        0.417
       23.37431        7.33171       17.33138       -0.834
       24.10403        6.76345       17.57800        0.417
       23.72988        8.21842       17.39096        0.417
       18.75409       16.98788       29.52473       -0.834
       18.80956       16.53099       30.36402        0.417
       18.58877       16.29536       28.88496        0.417
       10.92205        8.61317       18.60393       -0.834
       10.68117        9.28625       17.96740        0.417
       11.87755        8.57435       18.56219        0.417
       24.14931       23.13654       24.24113       -0.834
       25.07695       23.18131       24.47289        0.417
       23.89451       24.04737       24.09384        0.417
       21.26222       29.67706       17.81750       -0.834
       20.35957       29.69021       18.13574        0.417
       21.20459       30.00144       16.91879        0.417
        7.45976       22.09786       17.19075       -0.834
        6.66331       22.30856       16.70340        0.417
        8.10921       21.90109       16.51568        0.417
       16.41458       22.69843       30.66094       -0.834
       16.50756       22.55034       29.71985        0.417
       15.85795       23.47426       30.72795        0.417
        8.21832        7.43710       19.13451       -0.834
        8.99059        8.00119       19.09408        0.417
        7.51202        8.01720       19.41886        0.417
       19.17017        4.60300       18.07517       -0.834
       19.40848        3.72623       17.77400        0.417
       19.91097        5.15351       17.82145        0.417
       24.16555       27.69782       17.33209       -0.834
       23.24411       27.50661       17.50707        0.417
       24.64624       27.02884       17.81957        0.417
       16.17837       30.16347       19.95809       -0.834
       15.35250       30.30124       19.49420        0.417
       15.91727       29.93364       20.84986        0.417
       11.83644       26.58695       25.95829       -0.834
       11.95700       26.44571       25.01927        0.417
       11.55516       25.73613       26.29478        0.417
        8.14647       19.05387       21.10414       -0.834
        7.99468       19.48937       21.94291        0.417
        8.62412       19.69845       20.58203        0.417
        3.94639        9.30766       18.40842       -0.834
        4.62844        8.84618       17.92049        0.417
        3.13551        8.85763       18.17138        0.417
        8.43803       28.15345       15.00521       -0.834
        7.85236       28.91043       14.99067        0.417
        8.16690       27.62580       14.25401        0.417
       18.45924       19.63056       29.59525       -0.834
       19.41095       19.67578       29.50340        0.417
       18.25800       18.69581       29.55087        0.417
       17.17159       24.53391        8.30282       -0.834
       16.93938       24.48600        9.23019        0.417
       17.54024       23.67345        8.10297        0.417
       11.75831       21.02797        5.82088       -0.834
       12.23052       21.45903        6.53323        0.417
       12.28054       21.21292        5.04031        0.417
       26.11887       16.45023        7.65178       -0.834
       26.93532       16.55803        8.13965        0.417
       25.43151       16.65194        8.28667        0.417
       21.00358       19.38087        9.05963       -0.834
       20.09646       19.53418        8.79533        0.417
       21.47893       20.14892        8.74282        0.417
       10.30772       11.58380        9.18722       -0.834
        9.68282       10.86462        9.09501        0.417
       11.08000       11.18125        9.58441        0.417
       27.29542       19.21455       17.35632       -0.834
       27.23730       19.34810       18.30237        0.417
       27.95965       19.83969       17.06607        0.417
       21.48394       21.76020        3.82225       -0.834
       20.90936       21.71991        4.58675        0.417
       20.89646       21.65083        3.07449        0.417
       20.64514       16.40736        2.39173       -0.834
       20.65065       15.47288        2.18447        0.417
       19.92327       16.51143        3.01166        0.417
       12.72020        7.77793       12.24337       -0.834
       13.62849        7.60070       12.48797        0.417
       12.21041        7.12686       12.72551        0.417
       22.25980       12.68619        7.84640       -0.834
       22.66173       13.17085        7.12543        0.417
       22.56086       11.78541        7.72731        0.417
       19.48398       30.29643       12.07715       -0.834
       19.27837       29.90972       11.22602        0.417
       20.40687       30.54206       12.01251        0.417
       24.19842       10.80607       14.46728       -0.834
       24.07418       10.95625       13.53013        0.417
       24.45241        9.88540       14.53119        0.417
        7.42464       19.66125       27.91786       -0.834
        8.13706       19.02679       27.83941        0.417
        6.83812       19.28366       28.57334        0.417
        9.19055       12.62822       21.01188       -0.834
        9.56835       11.74880       21.02277        0.417
        9.48833       13.02748       21.82929        0.417
       13.02925       26.36714       18.55679       -0.834
       12.90613       27.08822       17.93944        0.417
       12.16865       25.95229       18.61597        0.417
       12.73298        5.50019       16.81208       -0.834
       13.58395        5.32587       16.40998        0.417
       12.86192        6.31055       17.30495        0.417
       10.81462       29.69769       18.30218       -0.834
        9.95596       30.10120       18.42917        0.417
       10.75891       29.28037       17.44255        0.417
       18.42106       11.28957       19.89488       -0.834
       18.51722       11.19114       20.84214        0.417
       18.88233       12.10291       19.69006        0.417
       28.59164       23.35601       11.88366       -0.834
       28.31049       24.08579       11.33175        0.417
       29.53724       23.47389       11.97407        0.417
       10.15927       10.77932        3.70049       -0.834
        9.71131       11.02183        4.51090        0.417
       11.07531       11.01060        3.85417        0.417
       18.47663        9.03359       18.46094       -0.834
       18.03555        9.30372       17.65551        0.417
       18.53483        9.83397       18.98271        0.417
       22.70636       24.82973        8.65727       -0.834
       22.75908       23.96274        8.25506        0.417
       21.78586       25.07813        8.57232        0.417
       26.76351       15.85319        4.85897       -0.834
       25.97024       15.49312        4.46235        0.417
       26.52830       16.00025        5.77509        0.417
       26.66934        5.70913       13.92755       -0.834
       25.91880        5.63744       13.33782        0.417
       26.47672        5.09584       14.63678        0.417
        8.20408        7.75422       15.67423       -0.834
        7.59223        8.36309       15.26052        0.417
        8.61446        8.26398       16.37278        0.417
       17.25826       10.84773       16.41380       -0.834
       17.93121       10.19281       16.22815        0.417
       17.72920       11.68106       16.41846        0.417
       29.93634       14.63914       15.51677       -0.834
       29.83392       15.37535       14.91367        0.417
       29.84035       15.02650       16.38682        0.417
        8.20849       24.74000       23.67065       -0.834
        8.73680       25.16781       22.99678        0.417
        7.58595       24.20178       23.18178        0.417
       15.07363       11.15307       27.17823       -0.834
       14.33266       10.55360       27.26676        0.417
       15.79418       10.60082       26.87481        0.417
       10.73153       29.93218       14.87291       -0.834
       10.14087       29.17912       14.85700        0.417
       10.66917       30.30473       13.99339        0.417
       23.13021        3.60729       13.22019       -0.834
       23.82519        4.15923       12.86157        0.417
       23.33551        2.72735       12.90431        0.417
        6.58265       19.84802       23.60346       -0.834
        6.71953       20.38173       24.38618        0.417
        6.38850       18.97335       23.94034        0.417
       23.87659       13.57135       12.01327       -0.834
       24.64282       14.04564       11.69053        0.417
       24.16291       12.65942       12.06465        0.417
        6.57926       17.28015       24.82488       -0.834
        7.08151       16.67026       24.28451        0.417
        5.72583       17.33496       24.39490        0.417
       17.97363       20.88319        4.20461       -0.834
       18.12328       21.39615        3.41044        0.417
       17.62561       21.51346        4.83538        0.417
       16.66115       22.17799       19.14782       -0.834
       17.50821       21.90874       18.79252        0.417
       16.05927       22.11641       18.40608        0.417
       18.58852        8.32768       15.66863       -0.834
       19.27594        7.80240       16.07822        0.417
       18.13485        7.71770       15.08695        0.417
       20.85365       13.14110        4.19161       -0.834
       20.52137       13.12210        3.29413        0.417
       20.09615       12.91836        4.73273        0.417
       10.59124       17.04849       15.54399       -0.834
       11.08180       17.87040       15.53812        0.417
       11.17986       16.41475       15.13395        0.417
       24.72669       20.18926       23.88079       -0.834
       23.79019       20.37493       23.81207        0.417
       25.15270       20.96897       23.52469        0.417
       12.29932       14.03811        5.92259       -0.834
       12.37059       14.14296        6.87136        0.417
       12.30860       14.93223        5.58097        0.417
       23.96057       17.23862        9.22052       -0.834
       24.12470       17.10459       10.15397        0.417
       23.11434       17.68474        9.18728        0.417
        8.82812       11.38421        5.89067       -0.834
        8.12891       10.96616        6.39323        0.417
        8.81989       12.29632        6.18087        0.417
       17.91315       11.26633       12.16656       -0.834
       18.63919       10.92931       12.69146        0.417
       18.05478       10.89608       11.29531        0.417
       25.78475       13.27490       26.81151       -0.834
       25.10608       12.83609       27.32444        0.417
       26.58817       12.79737       27.01816        0.417
       27.36981       22.27108       19.79884       -0.834
       27.73735       23.06490       19.41026        0.417
       27.85682       22.15561       20.61476        0.417
       15.75376       10.18117       14.32019       -0.834
       16.34590       10.30334       15.06227        0.417
       15.73140       11.03491       13.88792        0.417
       13.70822       22.62574       25.81837       -0.834
       13.16825       22.41514       25.05658        0.417
       13.13022       23.13123       26.38987        0.417
        9.99900        7.16201       27.04585       -0.834
       10.93728        7.07124       27.21208        0.417
        9.93272        7.27020       26.09710        0.417
       21.62900       22.31536       19.91656       -0.834
       21.31821       22.53874       19.03921        0.417
       22.51389       21.97736       19.77887        0.417
       20.85973       27.53331        6.57205       -0.834
       21.51198       27.13124        5.99833        0.417
       20.35096       26.79649        6.91040        0.417
       12.46876       17.37767       30.52918       -0.834
       12.42745       16.43105       30.66493        0.417
       13.05836       17.48763       29.78317        0.417
       17.97321        8.10357        8.50584       -0.834
       17.20286        7.61633        8.21364        0.417
       18.71617        7.59859        8.17533        0.417
        6.87781       17.57165        6.69580       -0.834
        6.18055       18.00427        7.18865        0.417
        7.32935       18.28403        6.24319        0.417
       15.08646       27.90551       22.05393       -0.834
       15.05346       28.78924       22.42022        0.417
       16.01856       27.73809       21.91467        0.417
       11.33659       10.23152       12.16394       -0.834
       11.84772        9.44697       12.36260        0.417
       11.93469       10.95818       12.33854        0.417
       28.95262       15.00390       22.08627       -0.834
       28.07951       15.18774       21.73971        0.417
       28.79643       14.43857       22.84274        0.417
       19.14011       18.25894       22.92064       -0.834
       18.65965       17.44416       23.06740        0.417
       20.02893       17.97765       22.70361        0.417
       10.15691       15.78943       11.69035       -0.834
        9.33896       16.05431       12.11110        0.417
       10.78978       15.73865       12.40668        0.417
        7.30627       14.87080        5.44258       -0.834
        7.73445       14.32974        6.10601        0.417
        7.58798       15.76348        5.64254        0.417
       28.64957       24.48871       18.98087       -0.834
       28.46471       24.92621       19.81192        0.417
       28.67633       25.19697       18.33754        0.417
        9.77826       21.86056       26.41001       -0.834
       10.71923       21.75372       26.54929        0.417
        9.38676       21.67544       27.26364        0.417
       22.67331        8.43397       24.24121       -0.834
       23.23401        8.32438       25.00923        0.417
       22.70446        9.37201       24.05321        0.417
       30.09951       17.15623       23.03404       -0.834
       29.81952       16.39363       22.52781        0.417
       29.39896       17.29102       23.67224        0.417
       27.45737        9.40893       12.55433       -0.834
       28.24102        9.55913       13.08307        0.417
       27.07789       10.27955       12.43498        0.417
       23.16380       19.33438       13.34489       -0.834
       22.67052       19.61248       14.11662        0.417
       22.49380       19.13162       12.69204        0.417
       21.92463       27.61563       19.79853       -0.834
       21.30838       26.96775       19.45688        0.417
       21.90018       28.32947       19.16130        0.417
        4.58618       20.89722       22.30401       -0.834
        5.31696       20.60100       22.84665        0.417
        4.04230       20.11816       22.18787        0.417
       14.46911       26.76934       27.33765       -0.834
       13.61501       26.56660       26.95600        0.417
       14.99965       27.06215       26.59670        0.417
       28.66695       13.00754        9.04254       -0.834
       28.89386       12.95716        9.97109        0.417
       29.04383       13.83667        8.74803        0.417
        6.87958       21.37224       26.02555       -0.834
        7.03621       20.55743       26.50282        0.417
        7.73894       21.61921       25.68387        0.417
       21.07846        2.35486       20.22088       -0.834
       21.23626        2.63579       19.31954        0.417
       21.66957        2.89334       20.74706        0.417
       19.58169       12.95173       23.25932       -0.834
       19.16626       12.72235       24.09060        0.417
       19.01209       12.56818       22.59248        0.417
       21.63359       16.39774       29.37064       -0.834
       22.24877       16.52962       28.64926        0.417
       20.81624       16.79018       29.06379        0.417
       30.57643       16.04529       17.81610       -0.834
       30.89512       16.78929       18.32711        0.417
       31.28868       15.40682       17.85195        0.417
       17.88383       29.80132       14.23688       -0.834
       18.03286       29.98931       13.31023        0.417
       18.67969       30.10397       14.67417        0.417
       19.97114        6.23392        7.79938       -0.834
       19.81077        5.30147        7.94450        0.417
       19.66122        6.39488        6.90816        0.417
       24.79645       10.59609       24.73586       -0.834
       24.40397       11.40171       25.07228        0.417
       25.71627       10.81889       24.59261        0.417
       23.05505       16.95384        5.86298       -0.834
       23.68544       17.55574        6.25864        0.417
       23.09242       16.17142        6.41312        0.417