%Nproc=32
%Mem=120Gb
%chk=temp.chk
#p cam-b3lyp/6-31+G(d,p) nosymm charge Freq 

Calculation for S0 with freq for abs spect

0  1
 C         15.67001       17.52951       16.07990
 C         17.29263       15.73382       15.50664
 C         17.69386       15.59301       16.75284
 C         17.02629       16.30618       17.76575
 N         16.02668       17.20797       17.42578
 H         17.67125       15.12497       14.63812
 H         18.45954       14.96849       17.03646
 O         17.17321       16.07324       18.97937
 O         14.84122       18.33227       15.79511
 N         16.36929       16.69331       15.18925
 H         15.95504       16.77448       14.32139
 H         15.50575       17.72944       18.15479
 O         14.51708       16.76585       12.41617
 H         15.16937       16.22204       12.85778
 H         13.67964       16.48043       12.78148
 O         18.78998       16.04904       11.90804
 H         19.61733       16.24945       12.34572
 H         18.46312       15.26989       12.35784
 O         15.31527       15.62299       21.69787
 H         15.14712       15.53682       20.75950
 H         15.81098       16.43779       21.77902
 O         13.30579       19.72350       17.83980
 H         14.06764       20.27445       18.01945
 H         13.32850       19.05264       18.52219
 O         19.03467       19.98607       14.24388
 H         18.31648       20.10106       13.62162
 H         19.06606       20.81053       14.72917
 O         13.43260       17.58922       19.93840
 H         13.99111       17.79637       20.68765
 H         14.00345       17.10814       19.33929
 O         13.37861       13.37019       17.68207
 H         14.01957       13.10137       18.34020
 H         12.91815       14.10757       18.08266
 O         18.21416       13.94027       19.22610
 H         18.85187       14.43913       18.71551
 H         18.65796       13.76085       20.05500
 O         14.92864       12.07703       14.72310
 H         14.29887       12.79639       14.67688
 H         14.87031       11.65167       13.86759
 O         15.77988       12.83945       19.08773
 H         16.36366       13.59709       19.12542
 H         16.29003       12.16552       18.63851
 O         12.73096       14.17611       15.13309
 H         13.26942       14.14575       15.92389
 H         12.39030       15.07031       15.10889
 O         18.29479       11.65431       14.82928
 H         17.46402       11.84808       15.26346
 H         18.09904       10.91271       14.25661
 O         15.21988       19.54228       12.58820
 H         14.77413       18.70020       12.49634
 H         16.05736       19.42055       12.14094
 O         12.69781       16.48751       16.79155
 H         12.22370       17.15076       16.29000
 H         12.11826       16.28150       17.52498
 O         17.61155       13.71906       13.00846
 H         17.88710       13.21027       13.77099
 H         16.94057       14.31262       13.34570
 O         18.40776       18.45445       20.05594
 H         19.21685       18.90080       19.80621
 H         18.43827       18.41942       21.01202
 O         18.19769       21.12985       17.93134
 H         17.26115       21.32008       17.87716
 H         18.52758       21.29484       17.04806
 O         20.41617       15.35886       18.39261
 H         20.75639       15.19860       17.51238
 H         20.67574       16.25879       18.59006
 
       17.69483        7.24343       15.41960       -0.834
       17.76189        6.33620       15.12184        0.417
       17.74488        7.76355       14.61760        0.417
       12.25304        4.45752       11.85822       -0.834
       12.19401        4.42954       12.81318        0.417
       12.26717        5.39077       11.64589        0.417
       19.41799       15.95564       31.09128       -0.834
       19.51827       16.85754       31.39580        0.417
       19.86236       15.42758       31.75455        0.417
       27.41038        8.93728       19.08328       -0.834
       28.18904        8.42692       18.86092        0.417
       26.71671        8.56679       18.53758        0.417
        7.17504       21.16886       17.20988       -0.834
        6.69502       21.99457       17.14658        0.417
        7.45108       20.98233       16.31253        0.417
       21.77768       23.68590       25.65698       -0.834
       21.66125       24.61459       25.85750        0.417
       21.09098       23.24453       26.15685        0.417
       13.11797        7.81210       17.99311       -0.834
       13.18990        8.72026       17.69934        0.417
       13.96368        7.42116       17.77359        0.417
       24.78417       12.90919       15.43751       -0.834
       25.50747       13.52260       15.56710        0.417
       24.75288       12.77160       14.49077        0.417
       21.12847       11.65394        8.68347       -0.834
       21.99005       11.54896        9.08708        0.417
       21.07389       12.58618        8.47331        0.417
       24.03801       13.09458       18.73550       -0.834
       23.62933       12.62575       18.00789        0.417
       24.65042       12.46363       19.11378        0.417
       23.68250       10.70431        9.37860       -0.834
       23.57794       10.27838       10.22941        0.417
       24.39367       10.22342        8.95526        0.417
        6.92973       26.69077       14.69226       -0.834
        6.42989       26.25136       14.00429        0.417
        7.79119       26.84234       14.30347        0.417
       14.58286        8.65754        5.44345       -0.834
       14.67577        7.73925        5.69710        0.417
       13.76051        8.68947        4.95463        0.417
       12.23396        8.39789       14.55727       -0.834
       13.17936        8.54465       14.58759        0.417
       11.87065        9.04902       15.15749        0.417
       10.32385       14.25329        2.12672       -0.834
       10.43726       14.64908        2.99085        0.417
       11.04702       14.60268        1.60595        0.417
       24.62261        4.73674       22.00352       -0.834
       24.92236        5.59653       21.70833        0.417
       24.50322        4.83548       22.94810        0.417
        7.66016       23.90565       13.03750       -0.834
        7.45683       23.20478       12.41809        0.417
        6.92454       24.51344       12.96211        0.417
       16.68844        2.13075       15.65175       -0.834
       16.83660        1.53568       16.38672        0.417
       17.31867        1.85274       14.98707        0.417
       22.14725       28.97111       11.90585       -0.834
       22.26279       29.88052       11.63044        0.417
       22.29018       28.98694       12.85218        0.417
       31.21938       14.05450       14.13544       -0.834
       30.51241       13.40969       14.16080        0.417
       31.23159       14.36172       13.22897        0.417
       10.58266       24.25635       19.30921       -0.834
       10.28931       25.04187       19.77088        0.417
        9.95474       23.58006       19.56334        0.417
       15.48591       12.89910       22.49058       -0.834
       15.59712       13.78174       22.13729        0.417
       16.34335       12.48756       22.38252        0.417
       21.97774       14.82534       13.05311       -0.834
       21.84246       13.96177       12.66301        0.417
       22.07742       14.65281       13.98934        0.417
        8.33896       20.04064       22.24316       -0.834
        8.62106       20.10955       21.33107        0.417
        8.07702       20.93000       22.48119        0.417
       15.40721       23.33122       20.65721       -0.834
       15.54730       23.90108       21.41343        0.417
       14.45574       23.28893       20.56157        0.417
       10.64947        2.35976       14.91270       -0.834
        9.70491        2.35066       14.75794        0.417
       10.77635        3.03107       15.58313        0.417
       18.36315       23.45640        4.74352       -0.834
       19.17569       22.95879        4.65193        0.417
       18.42080       24.13582        4.07173        0.417
       14.27564       18.40176        5.38955       -0.834
       14.40144       17.67318        5.99747        0.417
       14.23979       17.99034        4.52602        0.417
       10.83693       19.76763       26.28841       -0.834
       11.44966       19.07725       26.03511        0.417
        9.99180       19.32397       26.36016        0.417
       15.08119        5.69642       11.02816       -0.834
       14.65868        5.57065       11.87780        0.417
       15.03750        6.64043       10.87579        0.417
       19.41835       22.52000       27.25535       -0.834
       18.75709       22.77195       27.89994        0.417
       20.18448       22.28253       27.77775        0.417
       14.54626        6.09638        6.68724       -0.834
       13.59532        6.05374        6.78788        0.417
       14.86544        5.28178        7.07556        0.417
       27.45093       14.20463       15.67692       -0.834
       28.16788       14.79369       15.91192        0.417
       27.86581       13.51806       15.15467        0.417
        3.27055       22.63731       18.31263       -0.834
        3.99044       22.83209       17.71259        0.417
        3.22263       21.68143       18.32769        0.417
       24.10082       24.78180       24.57772       -0.834
       24.73970       24.61032       25.26961        0.417
       23.44338       24.09400       24.68232        0.417
       27.46441       24.49231       12.70128       -0.834
       27.80152       23.71802       13.15189        0.417
       26.78577       24.83275       13.28418        0.417
       12.72430       27.34750       16.82515       -0.834
       13.36111       28.01506       16.57008        0.417
       12.31673       27.69526       17.61836        0.417
       18.67203        2.07801       13.87892       -0.834
       19.11752        2.04427       13.03238        0.417
       19.36449        2.28532       14.50643        0.417
       23.39404       15.73154        8.47054       -0.834
       23.38003       15.93800        7.53597        0.417
       22.63697       16.19409        8.82987        0.417
       18.67347       20.90797        7.53641       -0.834
       17.76203       20.76859        7.79345        0.417
       18.85263       20.21416        6.90177        0.417
       21.74897       17.75566       17.96226       -0.834
       22.35371       17.39367       17.31459        0.417
       22.31560       18.12517       18.63948        0.417
       22.22644       15.52739       27.75418       -0.834
       21.98810       14.77946       27.20644        0.417
       23.16190       15.41350       27.92203        0.417
        7.90842       12.77637       18.70673       -0.834
        8.63645       13.35264       18.47413        0.417
        7.23497       12.96473       18.05311        0.417
       17.49349       22.88520       29.03167       -0.834
       16.65160       22.43528       29.10295        0.417
       17.30068       23.79342       29.26446        0.417
       13.14724       10.64723       17.18706       -0.834
       12.28106       10.58882       16.78388        0.417
       13.27253       11.58171       17.35225        0.417
        5.15520       25.25166       12.94261       -0.834
        4.51020       25.65965       13.52033        0.417
        4.63392       24.84305       12.25157        0.417
       19.89979        9.11508       29.42520       -0.834
       20.63855        9.66474       29.68662        0.417
       19.73511        9.35252       28.51265        0.417
       15.67974       19.25823       32.13622       -0.834
       15.05547       19.98380       32.14458        0.417
       15.77062       19.03049       31.21096        0.417
        3.50343       15.07409       12.78824       -0.834
        3.31381       15.46568       13.64085        0.417
        2.72860       14.54911       12.58761        0.417
       24.02411       23.70557       11.95048       -0.834
       23.71840       24.04151       11.10792        0.417
       23.71552       24.34674       12.59073        0.417
       10.17134       18.52181       14.69810       -0.834
        9.48443       18.43008       14.03782        0.417
       10.39607       19.45213       14.68298        0.417
        9.15901       19.14799       10.73436       -0.834
        9.84386       18.49142       10.86137        0.417
        9.52303       19.75246       10.08757        0.417
       23.56402       13.09617        6.70916       -0.834
       24.41642       13.51238        6.58101        0.417
       23.76844       12.17484        6.86911        0.417
       12.76008        5.04397       22.60691       -0.834
       12.87981        4.11313       22.79516        0.417
       11.92370        5.26592       23.01610        0.417
       19.17784        3.48224       16.73978       -0.834
       19.33946        4.31785       17.17781        0.417
       18.28750        3.55929       16.39687        0.417
       14.98573        6.73552       23.18860       -0.834
       14.08613        6.45538       23.01983        0.417
       14.91542        7.67308       23.36822        0.417
        8.58537       13.42285       24.77215       -0.834
        8.07860       13.90930       24.12194        0.417
        7.92977       12.93898       25.27443        0.417
        2.50069       18.07667       11.48928       -0.834
        3.38267       18.20880       11.14161        0.417
        2.57727       18.27985       12.42152        0.417
        3.88200       10.71587       13.60157       -0.834
        4.23212       11.46691       13.12243        0.417
        2.94603       10.89876       13.68372        0.417
       10.29774        5.50911       19.98755       -0.834
       10.97454        6.15211       20.19916        0.417
       10.10931        5.65527       19.06053        0.417
        8.44001       17.40267       23.52396       -0.834
        8.57374       18.26246       23.12507        0.417
        7.48926       17.31486       23.59184        0.417
       25.71002       23.66917        9.19007       -0.834
       24.86579       24.11935        9.16095        0.417
       25.80924       23.40412       10.10447        0.417
       24.92222        8.55137       12.52308       -0.834
       24.54616        7.67541       12.43643        0.417
       24.18509        9.14445       12.37774        0.417
       19.03943       13.62373       23.29094       -0.834
       19.13835       12.68388       23.13881        0.417
       18.66812       13.68662       24.17094        0.417
       17.23430       15.42397        8.60040       -0.834
       16.64057       15.76687        9.26836        0.417
       17.14024       16.02724        7.86320        0.417
        9.63542        9.57191       20.37053       -0.834
        9.71225        8.65389       20.63047        0.417
       10.28877       10.02721       20.90164        0.417
       12.21556       16.25918        9.33343       -0.834
       11.75190       15.42193        9.31676        0.417
       11.55993       16.90202        9.06299        0.417
       23.38419       18.97075        7.42331       -0.834
       22.73493       19.05833        6.72544        0.417
       23.22172       19.71914        7.99755        0.417
        4.03050       20.62944       12.08653       -0.834
        3.10875       20.58500       11.83230        0.417
        4.01805       20.58687       13.04270        0.417
       18.66662       10.21397       18.33533       -0.834
       17.97764       10.69205       17.87385        0.417
       18.76987        9.40248       17.83829        0.417
       16.00703        6.81070       18.40387       -0.834
       15.69641        6.06651       17.88814        0.417
       16.71640        6.45319       18.93791        0.417
       13.38263       15.36518       31.92667       -0.834
       13.40770       15.73025       31.04218        0.417
       12.73031       15.89395       32.38614        0.417
       11.84645       13.86430       26.51532       -0.834
       11.76106       14.41518       27.29344        0.417
       11.50300       14.40198       25.80175        0.417
       25.41175       17.01043       22.44394       -0.834
       24.99169       17.76794       22.03657        0.417
       24.99428       16.25405       22.03182        0.417
       24.97409       14.12435       25.41458       -0.834
       24.90166       14.38656       26.33231        0.417
       24.07706       14.16214       25.08266        0.417
       14.58008       29.33982       15.73107       -0.834
       14.62698       30.23576       16.06471        0.417
       15.41532       29.20660       15.28290        0.417
       16.09591       27.24636        8.88364       -0.834
       15.25918       27.28060        8.42002        0.417
       16.75438       27.36848        8.19973        0.417
       27.71942       19.51438       21.07798       -0.834
       28.51714       19.61657       21.59706        0.417
       28.01737       19.13123       20.25297        0.417
       14.39377       15.47848        5.25937       -0.834
       15.00325       15.72954        4.56530        0.417
       14.07949       14.61206        5.00096        0.417
        8.49935       10.69469       23.11209       -0.834
        9.38814       10.96020       23.34827        0.417
        8.14841       11.43910       22.62330        0.417
       25.35351       22.40561       16.48747       -0.834
       24.84724       22.85601       17.16353        0.417
       25.13319       22.86461       15.67691        0.417
       20.21153       10.14227        6.48367       -0.834
       19.26125       10.04767        6.54883        0.417
       20.41497       10.90242        7.02865        0.417
        8.43664       21.80528       19.43984       -0.834
        8.08916       21.66239       18.55946        0.417
        9.15891       21.18189       19.51688        0.417
       28.67151       13.84606       11.51898       -0.834
       27.86197       13.95800       12.01731        0.417
       29.15910       14.65615       11.66812        0.417
       11.08458       18.03098        3.75489       -0.834
       11.12825       18.56358        2.96075        0.417
       11.31633       18.63393        4.46128        0.417
       15.76152       24.89959       22.74942       -0.834
       14.93697       25.11082       23.18730        0.417
       16.27719       25.70389       22.80785        0.417
       28.89927       19.97565        8.77409       -0.834
       29.19298       20.39675        7.96623        0.417
       28.14314       20.49221        9.05279        0.417
       16.19676       22.17548       23.64268       -0.834
       16.46008       22.02307       22.73512        0.417
       15.81395       23.05278       23.63740        0.417
        7.89982        9.57235       25.52389       -0.834
        8.71945        9.93803       25.85664        0.417
        7.74335       10.04091       24.70398        0.417
       17.39942        9.04259       13.39635       -0.834
       17.95986        8.85987       12.64219        0.417
       16.53020        9.18333       13.02093        0.417
       25.02943       20.05880       21.74478       -0.834
       25.85403       20.22616       21.28843        0.417
       25.15994       20.42651       22.61884        0.417
        7.06182       16.36584       19.76242       -0.834
        6.57710       17.07952       19.34777        0.417
        7.21153       15.73600       19.05735        0.417
       10.40874       24.17898        7.60321       -0.834
       10.33759       24.05384        8.54952        0.417
       10.48862       25.12631        7.49174        0.417
       19.52400       23.31309       20.80391       -0.834
       20.17771       23.48831       20.12702        0.417
       19.30689       24.17591       21.15696        0.417
       10.46331       18.39970        8.25980       -0.834
        9.59620       18.61585        7.91681        0.417
       11.07268       18.83171        7.66125        0.417
        2.86504       19.66590       17.70415       -0.834
        3.07359       19.29858       18.56310        0.417
        2.61793       18.90891       17.17299        0.417
       12.92267       17.96759       25.98245       -0.834
       13.33572       17.12490       25.79402        0.417
       13.59894       18.61572       25.78541        0.417
       11.31759       26.45986       26.29592       -0.834
       10.74144       26.00177       26.90784        0.417
       10.82395       27.23857       26.03870        0.417
       20.33335       14.58748        9.48849       -0.834
       20.89979       15.32512        9.71487        0.417
       19.58088       14.98763        9.05272        0.417
       22.19410       20.94438       27.60830       -0.834
       22.97820       21.47966       27.48619        0.417
       22.51875       20.04413       27.62785        0.417
       18.46361       10.80658       23.80006       -0.834
       18.64931       10.00642       24.29148        0.417
       18.06266       10.50091       22.98640        0.417
       28.65138        6.60440       15.41874       -0.834
       28.24963        6.57030       16.28688        0.417
       28.01322        7.06867       14.87704        0.417
       20.64541       25.47963       28.08852       -0.834
       20.25569       25.79744       27.27406        0.417
       19.92990       25.50731       28.72374        0.417
       29.38716        9.85443       13.02582       -0.834
       30.30598        9.98020       12.78878        0.417
       29.32824        8.93280       13.27752        0.417
       20.34495       20.54830       19.57180       -0.834
       20.45388       21.30363       20.14959        0.417
       19.59231       20.77163       19.02418        0.417
       10.15470       23.33025       22.94083       -0.834
        9.86398       24.20929       22.69791        0.417
        9.34489       22.84327       23.09341        0.417
       22.96070        9.52541       20.24365       -0.834
       22.38819        8.77884       20.42001        0.417
       22.47553       10.05586       19.61162        0.417
        9.43220       26.08914       20.85244       -0.834
        9.71640       26.97806       21.06525        0.417
        8.47710       26.12330       20.90585        0.417
        5.80602       13.79720       25.96632       -0.834
        5.82736       14.22780       25.11168        0.417
        4.99700       13.28568       25.95718        0.417
        7.90839       16.69222        6.31678       -0.834
        8.42277       17.49543        6.39749        0.417
        7.55843       16.54209        7.19497        0.417
       13.93361       27.98739        7.34171       -0.834
       13.75729       28.91074        7.16122        0.417
       13.93530       27.57050        6.48007        0.417
       15.53452       13.18894       29.95699       -0.834
       14.83015       13.67896       30.38121        0.417
       15.15983       12.90272       29.12397        0.417
       22.81669       18.38769       27.00666       -0.834
       22.62516       17.62644       27.55443        0.417
       23.29982       18.03141       26.26109        0.417
       16.43396        3.88896       19.51422       -0.834
       16.53480        3.08555       19.00374        0.417
       15.53563        4.17130       19.34239        0.417
        4.37325       18.38916       23.44028       -0.834
        5.02734       18.79351       22.87028        0.417
        4.00618       19.11868       23.93958        0.417
       12.16780       10.18996       28.20799       -0.834
       11.86905       10.46292       29.07544        0.417
       12.59707        9.34734       28.35616        0.417
       17.45488        7.13110       26.72588       -0.834
       17.93701        7.66059       26.09073        0.417
       16.83965        7.74273       27.13045        0.417
       14.08352       31.85843       19.32957       -0.834
       14.43367       31.00722       19.59236        0.417
       13.22544       31.65963       18.95486        0.417
       26.52036       14.17382       18.83669       -0.834
       26.89815       14.09864       17.96042        0.417
       25.57428       14.15189       18.69284        0.417
       22.13029       29.85607       17.57199       -0.834
       21.96058       29.17641       18.22429        0.417
       21.27390       30.03530       17.18377        0.417
        3.14625       15.76042       18.87004       -0.834
        3.13079       15.27560       19.69523        0.417
        3.46417       16.63105       19.10913        0.417
       16.24292        5.14990       25.55559       -0.834
       16.05656        5.47773       24.67577        0.417
       16.69959        5.87108       25.98869        0.417
        6.05268       18.81233       15.42574       -0.834
        6.98818       18.64709       15.30841        0.417
        5.93309       19.72116       15.15013        0.417
       19.64831       20.82428       22.72867       -0.834
       19.57313       19.95713       23.12695        0.417
       19.06354       20.79214       21.97154        0.417
       11.96566       28.61720       18.89681       -0.834
       11.93849       29.57388       18.91244        0.417
       12.49298       28.37960       19.65951        0.417
       14.66909        9.34443       23.34659       -0.834
       15.25257        9.81508       23.94179        0.417
       14.45840        9.98118       22.66367        0.417
       24.06355       12.17236       28.28752       -0.834
       24.16592       12.74711       29.04609        0.417
       24.78986       11.55269       28.35618        0.417
       17.58624        6.11462       22.60788       -0.834
       17.71659        5.87930       21.68926        0.417
       16.64465        6.26885       22.68484        0.417
       11.37688       30.73526       12.95446       -0.834
       12.27666       30.43907       12.81701        0.417
       11.42889       31.31689       13.71291        0.417
        9.68282        7.45216       25.26029       -0.834
        9.18327        8.23845       25.48039        0.417
       10.32453        7.37023       25.96579        0.417
       21.47639       20.78662       30.25336       -0.834
       21.87640       20.87486       29.38824        0.417
       20.58704       20.48005       30.07640        0.417
       26.64105       17.90968       17.34806       -0.834
       26.27475       18.79393       17.36075        0.417
       27.49022       17.99543       17.78141        0.417
        1.89700       11.96730       15.30863       -0.834
        1.07037       11.83935       15.77398        0.417
        2.44540       12.45493       15.92322        0.417
       23.00226       25.08619       13.86588       -0.834
       22.84551       25.64390       14.62786        0.417
       22.12973       24.90979       13.51402        0.417
       10.25823       10.69839       26.29003       -0.834
       10.93078       10.49847       26.94113        0.417
       10.59443       11.46465       25.82522        0.417
        4.30008       16.75292       14.97113       -0.834
        3.62985       16.86949       15.64450        0.417
        4.92145       17.46452       15.12527        0.417
       13.00500       21.44753       15.49176       -0.834
       13.66887       21.48324       14.80311        0.417
       13.34439       20.80951       16.11942        0.417
        9.12674       21.70161        8.37409       -0.834
        9.38501       22.28537        7.66082        0.417
        9.34522       22.18498        9.17087        0.417
        6.99367       29.05111       18.63597       -0.834
        7.67771       28.48240       18.28257        0.417
        6.40820       29.21083       17.89573        0.417
       16.84337       24.64415       12.95587       -0.834
       17.31549       24.27676       12.20861        0.417
       16.70406       25.56229       12.72386        0.417
       29.17175       17.78899       18.32950       -0.834
       30.03465       17.61290       17.95450        0.417
       29.14489       17.26166       19.12789        0.417
       24.36515       23.87423       18.53220       -0.834
       24.26569       24.82515       18.57791        0.417
       24.12398       23.56545       19.40554        0.417
       21.47987       27.89978       20.58792       -0.834
       22.16995       27.46999       20.08265        0.417
       21.92734       28.60756       21.05166        0.417
       10.80752       25.15909       16.47878       -0.834
       11.20350       26.02711       16.55614        0.417
       11.19230       24.65502       17.19578        0.417
       24.96595        3.56458       17.71611       -0.834
       24.52868        3.96978       16.96722        0.417
       24.31107        3.58082       18.41403        0.417
       23.01537        4.19197       19.48677       -0.834
       23.37895        4.31964       20.36298        0.417
       22.17490        3.75901       19.63643        0.417
       24.82673       12.93377       12.71435       -0.834
       24.62765       13.51502       11.98036        0.417
       25.12670       12.12281       12.30376        0.417
       17.38250       20.99511       25.95856       -0.834
       16.94768       21.57009       25.32883        0.417
       18.04409       21.54932       26.37255        0.417
        6.32418       16.31071       12.22650       -0.834
        5.42085       16.06147       12.42169        0.417
        6.84809       15.56727       12.52491        0.417
        9.42644       17.79358       20.49540       -0.834
        8.53456       17.44681       20.47245        0.417
        9.98574       17.02501       20.38265        0.417