%Nproc=32
%Mem=120Gb
%chk=temp.chk
#p cam-b3lyp/6-31+G(d,p) nosymm charge Freq 

Calculation for S0 with freq for abs spect

0  1
 C         15.67001       17.52951       16.07990
 C         17.29263       15.73382       15.50664
 C         17.69386       15.59301       16.75284
 C         17.02629       16.30618       17.76575
 N         16.02668       17.20797       17.42578
 H         17.67125       15.12497       14.63812
 H         18.45954       14.96849       17.03646
 O         17.17321       16.07324       18.97937
 O         14.84122       18.33227       15.79511
 N         16.36929       16.69331       15.18925
 H         15.95504       16.77448       14.32139
 H         15.50575       17.72944       18.15479
 O         17.03763       12.63927       15.23955
 H         17.93627       12.93267       15.38987
 H         16.90206       12.75346       14.29891
 O         13.30623       18.52872       18.78003
 H         12.87238       17.67869       18.70613
 H         14.12192       18.34222       19.24490
 O         13.18702       14.96930       13.33930
 H         13.54377       15.42672       14.10071
 H         12.24450       15.13068       13.38226
 O         14.03216       19.30808       14.17043
 H         14.82422       18.98630       13.73994
 H         13.36295       19.28997       13.48629
 O         15.83462       14.01712       12.79050
 H         15.87136       14.15535       11.84401
 H         14.97595       14.35209       13.04880
 O         15.65733       17.87967       20.11662
 H         16.44215       18.03364       19.59070
 H         15.97335       17.40687       20.88657
 O         22.12674       17.40019       15.40829
 H         22.87291       17.90355       15.73400
 H         21.56344       17.28378       16.17338
 O         21.18133       16.24046       18.13902
 H         21.67284       17.06080       18.18024
 H         20.67635       16.22215       18.95198
 O         18.27498       16.12577       12.47886
 H         19.03354       16.43878       12.97165
 H         18.46066       15.20132       12.31409
 O         13.84460       15.63342       20.51128
 H         13.07366       15.98682       20.95513
 H         13.80969       16.01104       19.63241
 O         15.81074       17.62740       12.94744
 H         15.22483       17.36869       12.23610
 H         16.58992       17.08487       12.82590
 O         19.66629       12.86734       15.70240
 H         20.50713       13.29068       15.87566
 H         19.67434       12.08376       16.25210
 O         17.85921       19.31294       13.71406
 H         17.67005       20.01108       14.34099
 H         16.99903       18.97671       13.46252
 O         17.43227       21.39094       16.83377
 H         16.99265       20.56000       17.01408
 H         17.00303       21.72343       16.04546
 O         12.00871       18.35381       15.84957
 H         12.05441       18.38562       16.80515
 H         12.92144       18.39514       15.56415
 O         14.72345       20.38768       16.42712
 H         14.19033       19.95011       15.76338
 H         15.13893       21.11326       15.96114
 O         13.49303       13.04798       17.03976
 H         12.66349       13.06287       16.56240
 H         13.84516       13.93206       16.93665
 
       27.43331       14.31176       11.88477       -0.834
       27.42518       13.64487       11.19817        0.417
       26.51721       14.39482       12.14956        0.417
       15.84883        6.30056       25.96725       -0.834
       15.66095        7.12803       25.52427        0.417
       15.84821        6.52141       26.89862        0.417
       24.12852       29.20014       13.57150       -0.834
       23.44472       29.71902       13.99507        0.417
       24.37433       28.54676       14.22640        0.417
       24.54432       19.41448       16.34062       -0.834
       25.24454       18.85327       16.00750        0.417
       24.06984       19.69609       15.55845        0.417
       13.71346       25.62071       12.32128       -0.834
       12.78811       25.46421       12.50961        0.417
       13.89871       25.07420       11.55755        0.417
        7.65793        6.37004       21.60985       -0.834
        7.61016        6.99871       22.33008        0.417
        7.73570        6.91091       20.82395        0.417
       13.23059       13.83313        9.55220       -0.834
       12.95219       13.74127        8.64100        0.417
       14.18543       13.88337        9.50751        0.417
       26.31636       20.50681       13.59278       -0.834
       26.70308       21.04528       12.90233        0.417
       25.38471       20.72573       13.57442        0.417
        6.42856       10.62896       19.89294       -0.834
        6.56019       11.39703       20.44880        0.417
        5.61588       10.81071       19.42098        0.417
       18.65443       14.02734        1.41763       -0.834
       17.93628       14.50070        0.99760        0.417
       19.14580       14.70260        1.88539        0.417
        7.96017        8.21416       19.63027       -0.834
        8.58802        8.53882       18.98479        0.417
        7.42439        8.97673       19.84856        0.417
       11.72677       16.62968       21.84701       -0.834
       11.53346       16.56865       22.78249        0.417
       10.97880       17.09899       21.47751        0.417
       14.08519       18.33456       24.54982       -0.834
       14.40887       18.66254       23.71083        0.417
       14.35759       18.99499       25.18689        0.417
       17.80865       24.51049       19.36274       -0.834
       17.26275       24.25592       18.61882        0.417
       17.19969       24.56691       20.09909        0.417
       12.13925        7.03263       27.69329       -0.834
       12.55394        7.80416       27.30730        0.417
       11.32573        7.36289       28.07454        0.417
       23.46355       24.47718       21.42368       -0.834
       23.14221       24.48420       22.32530        0.417
       23.12520       25.28716       21.04200        0.417
        6.73217        5.12469       14.35331       -0.834
        6.62981        6.01389       14.01408        0.417
        7.01794        5.24475       15.25894        0.417
       29.40526       18.42026       11.66780       -0.834
       28.59528       18.24325       12.14621        0.417
       29.12079       18.87088       10.87266        0.417
        8.50808       10.04985       12.43943       -0.834
        8.61015       10.77766       13.05271        0.417
        7.56650       10.00679       12.27268        0.417
       13.09724       19.95934        4.16376       -0.834
       13.36883       19.09227        4.46486        0.417
       12.39322       19.78667        3.53864        0.417
        6.70829       20.16365       19.45408       -0.834
        5.94134       20.61992       19.80026        0.417
        6.85465       19.44210       20.06578        0.417
       25.96471       10.13768       26.03201       -0.834
       26.25805       10.14161       26.94314        0.417
       26.75748        9.96132       25.52541        0.417
       12.19202       27.01501       22.72725       -0.834
       11.45420       27.56934       22.98136        0.417
       12.05181       26.84060       21.79658        0.417
        8.67774       11.52269       16.72419       -0.834
        9.25460       10.93306       17.20979        0.417
        8.53475       12.26055       17.31693        0.417
        9.74757       26.81823        9.64112       -0.834
        8.93048       27.31682        9.63809        0.417
       10.30548       27.27563       10.27021        0.417
       20.60512       24.28217       20.04150       -0.834
       19.66932       24.12811       19.91199        0.417
       21.03265       23.55054       19.59632        0.417
        5.94745       24.54972       14.07360       -0.834
        6.76014       24.10760       14.31914        0.417
        5.77494       25.15345       14.79608        0.417
        7.54175       16.97503       20.65697       -0.834
        8.24395       17.62308       20.60058        0.417
        7.99404       16.13150       20.66872        0.417
       19.44940       26.17619       17.94402       -0.834
       19.51980       25.60025       17.18270        0.417
       18.80622       25.74874       18.50960        0.417
       25.15287       15.56766       24.68819       -0.834
       25.29913       15.61981       23.74367        0.417
       24.51702       14.86001       24.79387        0.417
        6.25131       14.77821       11.41609       -0.834
        6.50298       15.57555       10.95011        0.417
        7.06924       14.29157       11.51811        0.417
       26.08561       26.80248       16.56227       -0.834
       26.45247       27.68658       16.56564        0.417
       25.13852       26.93550       16.60177        0.417
        8.74244       14.67889       24.96361       -0.834
        7.83402       14.72080       24.66488        0.417
        9.20479       14.22005       24.26224        0.417
       19.81902        7.34175       24.07748       -0.834
       19.87583        6.75733       24.83344        0.417
       18.90725        7.27832       23.79308        0.417
       15.38090       11.05045       16.74760       -0.834
       14.65474       11.64454       16.93730        0.417
       16.03474       11.60068       16.31636        0.417
       28.64645       25.05243       12.68963       -0.834
       29.13652       25.86890       12.59241        0.417
       28.58731       24.91922       13.63566        0.417
       19.56727       16.12350       21.60205       -0.834
       19.03548       15.33849       21.73312        0.417
       20.36527       15.95943       22.10456        0.417
        8.52255       28.19804       20.32463       -0.834
        8.22329       27.31056       20.12698        0.417
        9.19368       28.37723       19.66607        0.417
       23.46599       16.45288        6.54998       -0.834
       23.23288       16.23041        7.45131        0.417
       24.42291       16.47587        6.54827        0.417
       24.56458       10.41789        9.75461       -0.834
       23.69380       10.80636        9.67055        0.417
       24.68920       10.30993       10.69750        0.417
       10.29449       13.42125       22.83964       -0.834
       10.14193       12.47729       22.79605        0.417
       11.17248       13.50553       23.21149        0.417
       21.95898       22.00784       18.94937       -0.834
       21.26398       21.45900       18.58608        0.417
       22.26007       21.53252       19.72374        0.417
       30.01084       10.56828       12.60314       -0.834
       29.71700        9.79245       12.12567        0.417
       29.72865       11.30492       12.06095        0.417
       17.41672        6.20824       23.58642       -0.834
       17.26584        5.99415       24.50709        0.417
       16.84064        5.61484       23.10451        0.417
        8.79079       23.53656        7.01530       -0.834
        8.14547       23.99300        7.55518        0.417
        9.45771       23.24237        7.63570        0.417
       25.70675       14.87600       22.26107       -0.834
       25.16781       15.16612       21.52513        0.417
       26.56615       14.70424       21.87614        0.417
       24.96634        3.79404       18.89161       -0.834
       25.27101        2.99240       19.31680        0.417
       24.01581        3.69285       18.84168        0.417
        7.24340       17.16850        9.96377       -0.834
        7.26938       17.11002        9.00871        0.417
        8.15946       17.10203       10.23328        0.417
       20.42483        7.00174       11.90081       -0.834
       19.53385        6.66223       11.81639        0.417
       20.55552        7.10099       12.84384        0.417
        7.65280        5.39504       17.12907       -0.834
        7.01553        5.46105       17.84024        0.417
        8.37744        4.89298       17.50200        0.417
       29.46545       21.22043       18.01688       -0.834
       28.91074       20.45292       17.87742        0.417
       29.27531       21.79228       17.27319        0.417
       12.90545       24.83961       16.38770       -0.834
       12.64419       24.52625       17.25360        0.417
       13.17319       24.05004       15.91745        0.417
       25.31325       10.60751       12.60022       -0.834
       25.95328        9.99596       12.23609        0.417
       25.83825       11.24241       13.08757        0.417
       10.34613       28.88824       18.57989       -0.834
       11.23988       28.65953       18.83512        0.417
       10.40784       29.79348       18.27498        0.417
       10.53870       23.50529       22.80013       -0.834
       11.37823       23.89098       22.54982        0.417
        9.90137       24.20537       22.65897        0.417
        8.84909       27.97639       16.15193       -0.834
        9.27932       28.27165       16.95439        0.417
        8.01226       28.44102       16.14337        0.417
       18.01237       10.19798       22.19818       -0.834
       18.86385       10.53949       21.92507        0.417
       17.62170        9.85623       21.39393        0.417
       29.44506       10.65124       17.36622       -0.834
       29.06718        9.98370       17.93877        0.417
       29.48162       11.43944       17.90811        0.417
       25.83303        6.78406       18.61107       -0.834
       25.68082        5.87293       18.36024        0.417
       25.76532        6.78465       19.56587        0.417
       11.48800       16.19974        5.09685       -0.834
       12.26261       16.70101        5.35169        0.417
       10.75095       16.77204        5.31006        0.417
        6.67795       18.65481       16.22714       -0.834
        6.75151       19.44287       16.76546        0.417
        5.80398       18.31437       16.41823        0.417
       10.22983       10.24929       19.01866       -0.834
        9.89104       10.38982       19.90280        0.417
       11.09250       10.66403       19.02348        0.417
        6.41969       26.33343       19.74505       -0.834
        6.33989       25.90984       18.89038        0.417
        5.94929       27.16134       19.64746        0.417
       18.42665       28.20900       10.08425       -0.834
       17.78793       27.52588        9.88023        0.417
       19.25960       27.86179        9.76507        0.417
       20.48542       19.70618       20.13408       -0.834
       19.74049       20.06907       20.61326        0.417
       21.24913       19.95073       20.65673        0.417
       20.79050       16.04104       27.01852       -0.834
       20.03361       15.61920       26.61183        0.417
       21.53554       15.76191       26.48632        0.417
       13.23243       11.30260       29.10251       -0.834
       13.01890       11.22474       30.03233        0.417
       14.18903       11.32504       29.07702        0.417
       20.07056       13.73050        8.99052       -0.834
       19.84827       14.35535        8.30031        0.417
       21.02262       13.64547        8.93974        0.417
       13.46756       22.62674       14.87283       -0.834
       12.55358       22.36570       14.76003        0.417
       13.79666       22.73979       13.98112        0.417
       18.31818       20.50494       28.93154       -0.834
       17.96533       19.80202       28.38598        0.417
       18.18613       21.29947       28.41432        0.417
        2.76392       19.62215       21.23325       -0.834
        3.47671       19.16841       21.68300        0.417
        1.97739       19.13375       21.47629        0.417
       22.30824       16.51116        9.00777       -0.834
       21.64393       17.18180        8.84909        0.417
       22.17076       16.24774        9.91768        0.417
        9.65532       20.72668        3.98165       -0.834
       10.12278       20.54301        3.16680        0.417
       10.09792       21.49391        4.34454        0.417
       20.10525       22.92592       13.17416       -0.834
       20.41026       23.82889       13.26270        0.417
       20.65283       22.55436       12.48255        0.417
       13.41821        2.20829       19.01373       -0.834
       13.51200        2.87433       18.33268        0.417
       14.29152        1.82532       19.09676        0.417
        7.75299       16.95665       26.16700       -0.834
        8.24129       17.60096       25.65451        0.417
        8.09643       16.11084       25.87910        0.417
       20.99189       13.06033        3.62241       -0.834
       20.93705       13.74851        2.95936        0.417
       20.68690       13.47818        4.42777        0.417
       25.22299       21.44029       22.45930       -0.834
       25.65242       22.14860       22.93901        0.417
       25.69840       21.38936       21.63006        0.417
       21.91246       30.30180       17.94298       -0.834
       21.27219       29.62669       18.16771        0.417
       22.02193       30.80651       18.74890        0.417
       20.95635       20.94205       23.84150       -0.834
       20.94319       21.80966       24.24561        0.417
       20.06741       20.81886       23.50857        0.417
        2.83037       15.07723       21.22198       -0.834
        3.42768       15.82267       21.16054        0.417
        2.04587       15.43213       21.64011        0.417
       18.88690       30.63449       15.90752       -0.834
       19.58168       30.49174       15.26477        0.417
       19.10616       30.04865       16.63205        0.417
        9.86129       15.28247       16.55434       -0.834
        9.33637       15.91998       16.07033        0.417
       10.55937       15.80083       16.95461        0.417
       22.47626       13.81516       25.74311       -0.834
       22.04442       13.28574       25.07269        0.417
       23.15696       13.24372       26.09856        0.417
       21.20712       15.69306       11.42390       -0.834
       21.86744       15.00031       11.40615        0.417
       20.37218       15.23067       11.35111        0.417
       15.04438       15.30395       25.44794       -0.834
       15.15677       14.44170       25.04779        0.417
       14.29260       15.68351       24.99297        0.417
       13.21365       22.06605       22.42082       -0.834
       13.42644       22.79807       22.99969        0.417
       12.41271       21.69350       22.78953        0.417
       14.54104       24.58559       27.95349       -0.834
       15.09396       23.85462       27.67745        0.417
       14.41467       24.44964       28.89253        0.417
       14.38544       20.08581       26.82685       -0.834
       14.66028       19.83506       27.70879        0.417
       13.95064       20.93073       26.94211        0.417
        5.13325       16.66701       21.50312       -0.834
        5.01059       17.29687       22.21338        0.417
        6.06841       16.70961       21.30340        0.417
        5.53774       10.44104       11.88035       -0.834
        5.97313       10.34570       11.03321        0.417
        5.03505       11.25183       11.80187        0.417
        6.16598       10.90963       23.64315       -0.834
        6.65372       11.19897       24.41427        0.417
        6.38751       11.54833       22.96549        0.417
       27.93293       18.00526       21.36601       -0.834
       27.39518       17.46941       20.78295        0.417
       27.31468       18.61338       21.77126        0.417
       20.93212        4.68086       22.22514       -0.834
       21.58916        5.10221       22.77921        0.417
       21.16912        4.93785       21.33406        0.417
       29.62013       13.99994       16.69484       -0.834
       30.45893       14.31657       16.35961        0.417
       29.00136       14.15896       15.98205        0.417
       12.91761       29.40698       15.19948       -0.834
       13.48601       28.64692       15.07514        0.417
       13.12969       29.72420       16.07734        0.417
       12.91759       30.06216       23.18843       -0.834
       13.87365       30.01831       23.20422        0.417
       12.67883       29.77735       22.30633        0.417
       11.26839       13.07232       15.50553       -0.834
       10.72919       13.78265       15.85326        0.417
       10.63960       12.39973       15.24383        0.417
       14.26108        9.78114       14.48481       -0.834
       14.33575        9.99334       15.41520        0.417
       13.56528        9.12512       14.44337        0.417
       10.42885       15.57559       30.54334       -0.834
       10.13407       14.80931       31.03544        0.417
       11.30133       15.33808       30.22934        0.417
       23.04932       18.24560       18.51233       -0.834
       22.81966       18.91396       19.15792        0.417
       23.56052       18.71460       17.85282        0.417
       18.78365       11.80301       19.84167       -0.834
       18.12294       12.19152       20.41504        0.417
       19.57309       11.75815       20.38111        0.417
       18.44001        3.51344       22.68581       -0.834
       19.37716        3.67067       22.57066        0.417
       18.24564        3.85123       23.56009        0.417
       25.83243       23.03121       26.40037       -0.834
       26.71984       22.89554       26.06821        0.417
       25.51270       23.79781       25.92463        0.417
       22.08741       17.95381       12.75728       -0.834
       21.56185       17.28128       12.32401        0.417
       22.03050       17.73989       13.68854        0.417
        3.13378       16.05397       15.21228       -0.834
        2.39335       16.66057       15.20701        0.417
        2.90962       15.39593       14.55427        0.417
       17.32894        4.83685       20.46622       -0.834
       17.70057        5.71753       20.51648        0.417
       17.83912        4.32492       21.09382        0.417
       12.75581       29.85296       20.39078       -0.834
       12.16250       30.58964       20.53748        0.417
       12.87513       29.82629       19.44142        0.417
       19.21812        7.06717       17.55814       -0.834
       19.46610        7.37333       16.68579        0.417
       18.27768        7.23666       17.61362        0.417
       22.37464       26.59180       19.36688       -0.834
       21.84066       25.79763       19.38783        0.417
       21.79727       27.27812       19.70129        0.417
        8.45194       13.70293        5.94193       -0.834
        7.83955       13.39549        6.61028        0.417
        9.20891       14.01719        6.43638        0.417
       14.83180       11.70282       11.15399       -0.834
       15.67972       12.09199       11.36800        0.417
       14.22855       12.07228       11.79883        0.417
        4.26230       17.89765       16.92950       -0.834
        3.73885       17.66633       17.69679        0.417
        3.98875       17.27510       16.25582        0.417
       17.98522        5.99837       11.74620       -0.834
       17.14616        6.27921       11.38105        0.417
       17.77551        5.21494       12.25465        0.417
       13.73089        9.39413       26.88157       -0.834
       14.60679        9.02334       26.98900        0.417
       13.59399        9.91882       27.67036        0.417
       11.03376       27.71429       14.36534       -0.834
       11.67437       28.37661       14.62454        0.417
       10.22928       27.96865       14.81740        0.417
       12.78839        9.01361       20.64986       -0.834
       12.56624        9.85430       20.24972        0.417
       13.14062        8.49064       19.92967        0.417
       18.20953        3.51324       12.86475       -0.834
       17.72062        2.84428       13.34400        0.417
       19.11491        3.20278       12.87570        0.417
       17.01208       18.27713        6.83679       -0.834
       16.84289       17.53719        6.25360        0.417
       16.17024       18.44690        7.25952        0.417
       15.72007       28.17725       18.72964       -0.834
       16.62070       28.01909       18.44667        0.417
       15.62292       29.12905       18.70025        0.417
        3.98899       18.82189       23.34808       -0.834
        4.52383       18.81165       24.14185        0.417
        3.24181       19.37778       23.56930        0.417
       17.75934        7.98500       14.40315       -0.834
       18.52361        7.44096       14.21306        0.417
       17.69191        8.57485       13.65231        0.417
       17.63032       17.87277       22.38428       -0.834
       17.54940       17.47001       23.24885        0.417
       18.42183       17.48429       22.01168        0.417
       13.97253        6.51985        5.44679       -0.834
       13.57221        7.19892        5.98979        0.417
       14.19414        6.96585        4.62936        0.417
       10.88782       16.94958       27.74079       -0.834
       10.67945       16.54460       28.58269        0.417
       10.94898       17.88525       27.93316        0.417
       24.73526       17.39590       11.79336       -0.834
       23.85907       17.65440       12.07918        0.417
       24.67478       16.45001       11.65973        0.417
       23.14027       23.49588       16.85262       -0.834
       22.78449       22.77406       16.33432        0.417
       22.99816       23.23152       17.76155        0.417
       16.68573        5.09052       17.62585       -0.834
       16.94848        4.79101       18.49619        0.417
       17.30691        4.67152       17.03020        0.417
       27.95458       15.01211       20.85674       -0.834
       27.84072       15.48808       20.03412        0.417
       28.54114       14.28856       20.63615        0.417
       29.34188        9.36811       21.55488       -0.834
       28.85718        9.68640       22.31645        0.417
       28.75060        9.51326       20.81627        0.417
        6.63906       12.92815       21.40656       -0.834
        5.85124       13.26305       20.97829        0.417
        7.20647       13.69363       21.49774        0.417
       14.56919        8.92053       22.72756       -0.834
       15.22812        8.26435       22.50067        0.417
       13.99448        8.95784       21.96300        0.417
       11.92535        5.67160       13.64887       -0.834
       11.25238        5.61229       12.97078        0.417
       11.57201        5.16819       14.38234        0.417
       17.73197       16.84513       25.01257       -0.834
       17.01298       16.21569       24.95711        0.417
       17.74505       17.11422       25.93107        0.417
       16.16171       21.04705       24.60298       -0.834
       16.08063       20.52794       23.80287        0.417
       16.62685       20.47542       25.21382        0.417
       16.61285       22.00786       21.15769       -0.834
       16.34557       22.92181       21.25511        0.417
       15.96846       21.63199       20.55793        0.417
       26.29836        6.39788       12.08151       -0.834
       26.97296        5.95936       11.56297        0.417
       25.48639        6.24350       11.59867        0.417
       22.69910       10.51123       13.01739       -0.834
       23.64332       10.40740       12.89949        0.417
       22.40903        9.67417       13.37990        0.417
       11.02714       28.07543       11.53384       -0.834
       11.56293       28.85581       11.67579        0.417
       10.98644       27.65294       12.39183        0.417
        8.08500       23.08519       15.50371       -0.834
        7.56300       22.94534       16.29377        0.417
        8.53962       22.25414       15.36622        0.417
       11.15389       24.88705       13.73626       -0.834
       10.23971       25.17076       13.74013        0.417
       11.53703       25.30138       14.50942        0.417
       24.63763       12.62174       27.13054       -0.834
       25.17130       11.83972       26.98958        0.417
       25.27266       13.33139       27.22732        0.417
       27.17530        5.48064       14.58221       -0.834
       26.99025        6.12024       15.26988        0.417
       26.70911        5.81188       13.81463        0.417
       15.32482       23.95918        8.33950       -0.834
       15.43447       23.20201        8.91475        0.417
       14.77348       23.63997        7.62510        0.417
        2.61455       17.34262       10.06597       -0.834
        3.42661       17.79360        9.83484        0.417
        2.51633       17.49204       11.00632        0.417
       21.47653       18.13001       28.96765       -0.834
       21.28482       19.00136       28.62091        0.417
       21.52891       17.56977       28.19330        0.417
        2.64480       18.92538       12.46650       -0.834
        3.59652       18.83182       12.50789        0.417
        2.34134       18.68049       13.34067        0.417
       23.75693        6.11166       10.60688       -0.834
       23.04693        5.50386       10.81352        0.417
       23.31922        6.94924       10.45487        0.417
        9.32119       11.08460       21.55767       -0.834
        9.21385       10.66691       22.41221        0.417
        8.44278       11.38613       21.32589        0.417
       13.96238       16.40480       11.12055       -0.834
       13.40700       15.70128       11.45646        0.417
       14.58487       15.96384       10.54236        0.417
       20.52894       18.74562        8.60824       -0.834
       19.98609       18.79905        9.39481        0.417