%Nproc=32
%Mem=120Gb
%chk=temp.chk
#p cam-b3lyp/6-31+G(d,p) nosymm charge Freq 

Calculation for S0 with freq for abs spect

0  1
 C         15.67001       17.52951       16.07990
 C         17.29263       15.73382       15.50664
 C         17.69386       15.59301       16.75284
 C         17.02629       16.30618       17.76575
 N         16.02668       17.20797       17.42578
 H         17.67125       15.12497       14.63812
 H         18.45954       14.96849       17.03646
 O         17.17321       16.07324       18.97937
 O         14.84122       18.33227       15.79511
 N         16.36929       16.69331       15.18925
 H         15.95504       16.77448       14.32139
 H         15.50575       17.72944       18.15479
 O         21.12418       16.66637       17.68123
 H         20.77109       15.81028       17.43903
 H         20.75319       17.26984       17.03748
 O         18.39557       16.43336       21.52445
 H         19.32968       16.58897       21.38492
 H         18.04352       16.28373       20.64701
 O         19.71674       18.47080       15.33341
 H         19.40632       19.04568       14.63384
 H         20.61226       18.76254       15.50415
 O         14.90266       13.58504       20.14537
 H         14.02954       13.71518       20.51543
 H         15.50104       13.79897       20.86120
 O         14.01153       13.83774       17.44464
 H         14.45725       13.55756       18.24406
 H         14.54097       13.47443       16.73476
 O         17.86168       13.06511       18.50746
 H         18.76485       13.29100       18.72995
 H         17.58781       12.46232       19.19875
 O         11.77625       16.14967       14.56742
 H         11.74570       15.21918       14.78990
 H         12.64655       16.27774       14.19004
 O         13.66960       16.40342       18.63024
 H         12.84843       16.87530       18.49155
 H         13.56943       15.59469       18.12810
 O         16.87682       20.45811       18.20926
 H         16.35405       20.42476       17.40811
 H         16.71422       21.33144       18.56574
 O         13.81179       19.64932       18.70858
 H         13.86138       19.69274       19.66351
 H         14.16349       18.78658       18.48898
 O         19.67891       18.59954       19.56138
 H         20.08396       17.81104       19.20024
 H         19.71283       19.23556       18.84685
 O         15.28979       20.77611       14.33142
 H         14.43436       20.82818       13.90509
 H         15.28818       19.92506       14.76954
 O         15.95566       12.52844       16.16594
 H         16.24645       11.95955       15.45317
 H         16.66987       12.49963       16.80259
 O         19.04703       15.81278       13.14355
 H         19.63337       15.07262       13.30041
 H         19.51997       16.57065       13.48734
 O         20.54756       13.65396       19.51381
 H         20.63396       14.23382       18.75715
 H         21.02829       12.86393       19.26687
 O         16.75681       16.34320       11.48467
 H         17.67866       16.59296       11.54814
 H         16.50843       16.11265       12.37988
 O         14.01264       15.82737       12.97000
 H         13.80285       15.13982       12.33794
 H         14.04077       16.63068       12.45026
 O         19.55639       20.70159       17.42485
 H         18.63768       20.43309       17.43503
 H         19.63608       21.25500       16.64791
 O         20.39245       14.10581       16.79402
 H         20.57935       14.37661       15.89515
 H         19.96364       13.25478       16.70403
 
       21.65007       12.82487       29.90524       -0.834
       21.24904       13.66980       30.10897        0.417
       22.34520       12.72605       30.55582        0.417
       25.71483       26.04118       18.81134       -0.834
       25.14885       26.36250       18.10946        0.417
       25.11441       25.83093       19.52655        0.417
       21.90144        6.21030        8.55769       -0.834
       22.24076        6.10780        7.66854        0.417
       21.44197        5.38959        8.73531        0.417
        9.68496       28.79015       13.41203       -0.834
       10.38091       29.27450       12.96785        0.417
        9.55711       28.00771       12.87568        0.417
       28.92250       13.51589       23.81019       -0.834
       28.24197       12.86591       23.63516        0.417
       28.70619       14.25044       23.23584        0.417
       20.82390        8.78605        8.81891       -0.834
       21.03299        7.94013        9.21506        0.417
       20.90944        8.63772        7.87715        0.417
       31.88157       15.57112       18.83293       -0.834
       31.31007       16.32887       18.70873        0.417
       32.67561       15.78665       18.34375        0.417
       20.63110       26.52972       22.02035       -0.834
       21.04787       26.88624       21.23586        0.417
       19.80450       27.00718       22.09102        0.417
        7.82327       12.96720       23.48271       -0.834
        7.68918       12.81325       22.54753        0.417
        7.16643       12.41956       23.91268        0.417
       23.56455       16.13839       18.70707       -0.834
       22.72013       16.41135       18.34836        0.417
       23.54760       16.43859       19.61582        0.417
        8.44239        5.87118       18.62714       -0.834
        7.92586        6.60058       18.96978        0.417
        8.49848        5.25348       19.35620        0.417
        6.55743       11.97149       10.61039       -0.834
        5.88745       11.40722       10.99635        0.417
        7.18104       12.12382       11.32042        0.417
       10.57281       16.08487       27.88827       -0.834
       10.87866       16.48603       27.07478        0.417
       11.21648       16.35208       28.54442        0.417
       27.01867        8.21434       13.76123       -0.834
       26.54060        7.41701       13.53332        0.417
       26.35446        8.90352       13.75137        0.417
        4.25686       15.55702       12.44351       -0.834
        3.56539       16.05399       12.88068        0.417
        4.91308       16.21350       12.20972        0.417
       19.79535       24.34188       18.08330       -0.834
       19.42823       24.49215       18.95443        0.417
       20.39385       23.60390       18.19913        0.417
       15.96655        3.63039       13.35347       -0.834
       15.05656        3.39996       13.54069        0.417
       16.26047        2.96287       12.73356        0.417
       11.95760       26.81243       16.98114       -0.834
       11.20562       27.29911       16.64365        0.417
       11.93864       25.98167       16.50605        0.417
       11.42314       24.73878       13.41968       -0.834
       12.22558       24.53141       13.89855        0.417
       11.53960       24.32368       12.56507        0.417
       11.71552       11.16135       10.00564       -0.834
       12.30226       10.53340       10.42714        0.417
       11.14691       11.46952       10.71129        0.417
       17.93992       24.72607       15.68978       -0.834
       18.54922       24.73841       14.95165        0.417
       18.48517       24.51453       16.44754        0.417
       19.57176       22.55729        8.80406       -0.834
       18.63786       22.74472        8.89858        0.417
       19.64147       21.61195        8.93709        0.417
       27.32894       25.17952       13.18882       -0.834
       27.33414       24.74148       12.33775        0.417
       27.18755       24.47456       13.82070        0.417
       18.08586       21.85168       29.81361       -0.834
       17.13785       21.73462       29.87532        0.417
       18.28561       22.53415       30.45436        0.417
        6.68026       26.25035       14.97940       -0.834
        6.17632       26.59611       14.24270        0.417
        7.43360       25.82074       14.57425        0.417
        4.12648       10.77245       11.67303       -0.834
        4.06600       10.69100       12.62484        0.417
        3.43195       11.38864       11.44029        0.417
       13.84980       23.19368        4.60566       -0.834
       13.49950       23.91697        4.08569        0.417
       14.40410       22.70636        3.99614        0.417
       13.39701       23.33571        7.29854       -0.834
       13.17565       23.24882        6.37136        0.417
       13.61772       24.26079        7.40690        0.417
       12.95057       16.91235       29.38396       -0.834
       12.91088       17.27216       28.49785        0.417
       13.77549       16.42748       29.40936        0.417
       22.75023       18.00691       13.72104       -0.834
       22.71550       18.28683       14.63574        0.417
       21.99851       18.43429       13.31057        0.417
       27.86250       19.01526       17.14912       -0.834
       27.63684       18.18486       16.72990        0.417
       28.49093       19.42221       16.55272        0.417
       13.08020       22.88392       21.89713       -0.834
       12.59982       22.39662       22.56647        0.417
       13.96109       22.50975       21.91373        0.417
       21.28523       10.82894       27.83795       -0.834
       21.09370       11.28929       28.65503        0.417
       20.45139       10.43321       27.58430        0.417
       19.04869       28.87095       12.03986       -0.834
       18.34425       28.38342       11.61289        0.417
       19.83412       28.34795       11.87920        0.417
        8.30105       15.16944       28.77445       -0.834
        7.58720       15.80712       28.77285        0.417
        9.01028       15.60196       28.29889        0.417
        7.59942       22.40323       13.31140       -0.834
        7.06054       21.84207       12.75378        0.417
        7.43879       22.08434       14.19951        0.417
       15.88582       20.58680        6.35168       -0.834
       16.46498       20.55650        7.11318        0.417
       15.04130       20.86827        6.70352        0.417
       27.55340       14.18436       10.26931       -0.834
       27.93736       14.96153        9.86334        0.417
       28.19706       13.49208       10.11865        0.417
       14.68592        6.99733       15.93459       -0.834
       14.23501        6.15438       15.98305        0.417
       15.35178        6.95311       16.62081        0.417
       18.78500        3.97314       19.01612       -0.834
       19.09729        3.79913       18.12819        0.417
       18.87486        4.92034       19.12082        0.417
       18.26494       19.89963        7.87407       -0.834
       17.93457       19.00562        7.96258        0.417
       19.21390       19.79856        7.79989        0.417
        9.77139       22.93245       22.65359       -0.834
        9.87233       22.38754       23.43405        0.417
        9.13892       23.60372       22.90974        0.417
       25.82406       22.89937       21.79658       -0.834
       26.42534       22.82165       22.53729        0.417
       26.11582       22.22856       21.17923        0.417
       10.64485       19.42603       26.65838       -0.834
       11.51575       19.03245       26.60474        0.417
       10.52253       19.61216       27.58930        0.417
       12.75028       13.05865       23.99297       -0.834
       12.66052       13.26683       24.92293        0.417
       11.93225       12.61643       23.76599        0.417
       23.99787        8.97222       27.69220       -0.834
       23.61436        8.10561       27.82689        0.417
       23.28857        9.58252       27.89386        0.417
       18.01818       21.01203        4.50234       -0.834
       17.58174       20.73857        5.30917        0.417
       18.76602       20.42005        4.42151        0.417
       10.42005        9.21744       26.28071       -0.834
        9.78859        8.59793       26.64634        0.417
       10.48284        8.97846       25.35595        0.417
       14.97755       11.93616       23.03927       -0.834
       14.27595       12.49783       23.36867        0.417
       15.32993       11.50934       23.82022        0.417
       22.36298        4.67374       22.14093       -0.834
       22.64959        4.86027       23.03496        0.417
       23.12973        4.86050       21.59922        0.417
        4.38106       14.33160       20.12997       -0.834
        3.56835       14.61838       20.54649        0.417
        4.98671       15.06178       20.25747        0.417
        7.44850       17.37348        8.42058       -0.834
        7.63442       16.52892        8.83091        0.417
        6.70086       17.71816        8.90892        0.417
        8.75582       25.46118       10.22339       -0.834
        8.54786       24.52776       10.18205        0.417
        9.14503       25.65831        9.37140        0.417
       13.24976       30.15505       15.50892       -0.834
       12.66539       29.45008       15.23006        0.417
       12.66786       30.89553       15.68014        0.417
        7.42286       24.23596       16.71354       -0.834
        7.24275       24.91449       16.06287        0.417
        6.70208       24.30630       17.33946        0.417
       14.82671        4.88008       21.92041       -0.834
       15.16405        4.51071       22.73650        0.417
       14.77082        4.13342       21.32409        0.417
       12.92224       10.28281       16.70731       -0.834
       13.54597       10.48088       17.40585        0.417
       12.16872       10.84334       16.89234        0.417
       12.81806       24.11601       27.51181       -0.834
       12.36153       24.21188       26.67598        0.417
       12.60601       24.91515       27.99413        0.417
        6.46453       20.97226       15.46086       -0.834
        6.94297       20.15136       15.34491        0.417
        6.29819       21.02219       16.40218        0.417
       22.82552        8.03369       15.88810       -0.834
       22.31600        8.16789       16.68723        0.417
       22.46358        7.23514       15.50398        0.417
       11.69962       20.32437       11.11399       -0.834
       10.76648       20.52539       11.04275        0.417
       12.04314       20.46349       10.23145        0.417
       23.72571       18.12947       26.84083       -0.834
       23.33647       17.46034       26.27781        0.417
       23.06631       18.82213       26.88150        0.417
        9.39929       22.49783       16.86717       -0.834
        8.51200       22.80729       16.68502        0.417
        9.65108       22.95107       17.67179        0.417
       21.21832       22.18945       14.64577       -0.834
       20.66373       22.96939       14.66451        0.417
       21.52905       22.13759       13.74190        0.417
       26.08081       21.54681       19.45711       -0.834
       26.12640       21.36100       18.51922        0.417
       25.20384       21.26335       19.71557        0.417
       12.43760       25.34620       22.46587       -0.834
       12.54082       24.39915       22.37279        0.417
       13.26640       25.70973       22.15415        0.417
       21.00608        6.14823       26.33717       -0.834
       20.66805        6.52085       27.15149        0.417
       21.36121        6.89785       25.85948        0.417
       22.33712       15.49291       11.70706       -0.834
       23.08705       15.07585       11.28290        0.417
       22.64640       16.37017       11.93287        0.417
        1.55658       18.76686       18.76348       -0.834
        1.32099       17.96130       18.30327        0.417
        2.27696       19.13404       18.25116        0.417
       16.84231        6.27549       20.76062       -0.834
       16.21829        5.58994       20.99911        0.417
       17.68507        5.95542       21.08240        0.417
       22.78964       16.44139       24.70908       -0.834
       22.57837       15.68818       24.15748        0.417
       23.74555       16.48885       24.69459        0.417
       28.91430       20.54901        7.96528       -0.834
       27.98923       20.49291        7.72582        0.417
       29.27932       19.70083        7.71313        0.417
       30.16636       23.10291       17.72063       -0.834
       29.33694       23.34384       18.13323        0.417
       30.56579       23.93853       17.47890        0.417
        3.47719       18.66792       22.51858       -0.834
        4.39369       18.91319       22.39170        0.417
        3.49094       18.06412       23.26119        0.417
       21.99977       20.14649       25.10716       -0.834
       22.53137       20.27823       24.32212        0.417
       21.42779       19.41065       24.88897        0.417
       23.81938       26.71319       16.73847       -0.834
       22.89961       26.82707       16.97781        0.417
       23.91063       25.77430       16.57605        0.417
       14.38021       16.95377        2.78886       -0.834
       14.99792       17.67873        2.69339        0.417
       14.93195       16.17301        2.83600        0.417
        4.25094       24.41204       12.77166       -0.834
        4.80159       23.77196       13.22256        0.417
        4.40208       24.24552       11.84125        0.417
        4.23706       22.28847       14.45995       -0.834
        3.67514       22.66051       15.13970        0.417
        4.84880       21.72634       14.93537        0.417
       18.83519       17.13169       25.68595       -0.834
       18.55916       17.87331       26.22450        0.417
       19.34945       16.58318       26.27832        0.417
       13.46996        9.23095       10.84729       -0.834
       14.33192        9.40773       11.22413        0.417
       13.63478        8.57811       10.16694        0.417
       21.75054       17.37055        6.96480       -0.834
       21.31951       16.68042        6.46065        0.417
       22.55244       16.96327        7.29239        0.417
       28.89714        8.29599       18.55701       -0.834
       29.18757        9.15494       18.25027        0.417
       28.27863        7.99928       17.88945        0.417
        8.84133       17.86111       23.21701       -0.834
        9.23803       17.11403       23.66503        0.417
        9.18754       17.81789       22.32566        0.417
       17.06728        8.47695        6.16302       -0.834
       17.73566        9.07121        6.50415        0.417
       16.61959        8.98311        5.48507        0.417
       10.07076       12.31109       11.68640       -0.834
        9.29394       11.84741       11.99909        0.417
        9.90446       13.22920       11.90004        0.417
       23.96264       25.61441       21.02845       -0.834
       24.00872       25.15336       21.86603        0.417
       23.58279       26.46618       21.24393        0.417
       22.22093       19.27288       16.29155       -0.834
       21.83589       20.14275       16.39788        0.417
       22.96803       19.26635       16.88989        0.417
        6.15925       21.25544       11.19523       -0.834
        5.67085       22.05853       11.01427        0.417
        5.64960       20.56421       10.77251        0.417
       16.89949       19.00525       31.19201       -0.834
       17.05605       18.16503       30.76102        0.417
       16.07689       18.88234       31.66581        0.417
       15.73012        2.86207       16.20501       -0.834
       15.90701        3.32873       15.38821        0.417
       14.95615        3.29459       16.56575        0.417
       21.91230        5.09614       11.59633       -0.834
       22.14150        4.16833       11.65002        0.417
       21.10930        5.11523       11.07570        0.417
       23.04711       11.59454       12.77641       -0.834
       22.45110       10.89443       13.04257        0.417
       23.66532       11.67260       13.50302        0.417
        8.53244       13.95788       20.69447       -0.834
        9.06918       14.05342       19.90769        0.417
        8.29751       14.85408       20.93500        0.417
       12.12189       28.08469       23.34713       -0.834
       12.76753       27.77760       23.98359        0.417
       11.82031       27.28923       22.90834        0.417
       14.94214       26.58410       22.47292       -0.834
       14.94746       27.28275       21.81863        0.417
       14.95986       27.04213       23.31324        0.417
        8.15614       13.06582       27.25863       -0.834
        8.90272       12.56917       27.59357        0.417
        8.10854       13.83744       27.82305        0.417
       11.69917       13.35138        5.00093       -0.834
       11.60422       13.13236        5.92788        0.417
       10.81662       13.26135        4.64144        0.417
       14.84611       20.26654       11.05594       -0.834
       14.28016       20.37242       10.29127        0.417
       14.74590       21.08400       11.54372        0.417
        7.65153       12.98429        8.33431       -0.834
        7.11606       12.59044        7.64555        0.417
        7.47364       12.45263        9.11015        0.417
        6.65208       17.57913       16.46651       -0.834
        5.74477       17.52614       16.16616        0.417
        7.06982       18.19185       15.86128        0.417
       21.50459        8.29166        6.25268       -0.834
       21.50921        7.73086        5.47698        0.417
       22.38673        8.66168        6.28657        0.417
       15.88257       23.08610       24.94679       -0.834
       15.88950       22.30246       25.49643        0.417
       15.62402       22.76979       24.08115        0.417
       11.40371       30.41244       17.67833       -0.834
       10.90661       29.85689       17.07792        0.417
       11.77250       29.80396       18.31862        0.417
       24.74289       18.41149       17.18699       -0.834
       25.12616       17.95370       16.43882        0.417
       24.46425       17.71270       17.77885        0.417
        7.01620       17.78397       28.32338       -0.834
        7.04332       18.02496       27.39741        0.417
        7.64172       18.37433       28.74342        0.417
        6.49588       17.28487        5.85448       -0.834
        7.15387       17.14344        6.53512        0.417
        6.89012       17.93274        5.27048        0.417
       20.85712       26.99037       16.94185       -0.834
       20.09842       27.46313       16.59966        0.417
       20.63409       26.06616       16.83078        0.417
       27.34984        7.77417       10.39128       -0.834
       27.29160        7.32849        9.54618        0.417
       26.44116        7.96073       10.62734        0.417
        6.97349       28.22585       16.83857       -0.834
        6.97208       27.50671       16.20684        0.417
        6.31044       28.83385       16.51156        0.417
        5.93199       17.91332       23.92330       -0.834
        6.88110       17.98166       24.02700        0.417
        5.57409       18.45342       24.62788        0.417
       15.79245        9.49926        4.02608       -0.834
       15.59725        9.01552        3.22351        0.417
       16.21368       10.30422        3.72467        0.417
       13.40200       19.07973       24.06687       -0.834
       14.26166       19.00033       24.48029        0.417
       13.07242       18.18207       24.02417        0.417
       18.27597       12.21705        5.00267       -0.834
       18.48648       11.41269        5.47693        0.417
       17.59614       12.63593        5.53049        0.417
       15.89824       19.33465        3.28517       -0.834
       15.37755       19.99485        2.82774        0.417
       16.69343       19.79717        3.54976        0.417
        9.12597       20.87467       10.42721       -0.834
        9.30560       21.60823        9.83912        0.417
        8.38562       21.16841       10.95809        0.417
        5.56864       16.73139       21.30443       -0.834
        5.76981       17.46201       20.71966        0.417
        5.94967       16.98494       22.14513        0.417
       30.26024       20.80736       16.55078       -0.834
       30.03881       21.62906       16.98897        0.417
       30.83834       20.35571       17.16563        0.417
       21.63470        6.06907       14.13927       -0.834
       20.79526        5.74019       14.46084        0.417
       21.75563        5.63378       13.29539        0.417
       13.00782       16.68848       21.68965       -0.834
       13.33327       16.59872       20.79396        0.417
       13.69471       16.30399       22.23424        0.417
       15.93522        5.04962        7.91841       -0.834
       16.69574        4.66219        8.35173        0.417
       15.73522        4.44793        7.20133        0.417
       19.98813       18.51674       30.63014       -0.834
       20.55865       18.15003       31.30562        0.417
       19.11007       18.47482       31.00893        0.417
       21.43387        7.55293       18.33653       -0.834
       21.84778        6.74652       18.02893        0.417
       22.11695        7.99662       18.83930        0.417
       19.16646       10.08536        6.50896       -0.834
       19.90113        9.62381        6.10465        0.417
       19.57046       10.64577        7.17150        0.417
       24.43503       19.25888        8.68446       -0.834
       23.84745       18.66241        8.22056        0.417
       24.01490       20.11573        8.61008        0.417
       28.72575       12.73113       20.42289       -0.834
       29.37742       12.03025       20.44073        0.417
       29.19552       13.50366       20.73715        0.417
       22.12953       11.49809       10.40441       -0.834
       22.08027       10.54548       10.32484        0.417
       22.36026       11.65076       11.32075        0.417
       22.56355       11.00163       22.51870       -0.834
       22.17868       10.13067       22.61644        0.417
       21.81739       11.59976       22.56022        0.417
       17.40402        7.37734        9.19830       -0.834
       17.06089        8.26746        9.27693        0.417
       17.30992        7.16502        8.26970        0.417
       11.82666        6.04144       14.41658       -0.834
       12.12563        6.93203       14.23304        0.417
       11.41346        6.09975       15.27803        0.417
       14.88008       11.32900       12.69570       -0.834
       15.24868       11.35794       11.81279        0.417
       15.58218       11.65344       13.25964        0.417
       12.62656       10.05966        3.71477       -0.834
       12.98066        9.40094        4.31221        0.417
       11.71240       10.15832        3.98086        0.417
        8.15675       15.47822       16.36242       -0.834
        7.41735       16.07434       16.24341        0.417
        7.97966       14.75348       15.76274        0.417
       21.17576        9.79939        3.58915       -0.834
       21.66834       10.50840        4.00254        0.417
       21.81794        9.10004        3.46771        0.417
       18.98152       26.52943       28.22653       -0.834
       19.30086       27.42678       28.13160        0.417
       18.80357       26.24203       27.33101        0.417
       23.99806       25.50807       10.32132       -0.834
       23.63645       25.59596       11.20322        0.417
       24.52466       26.29783       10.19806        0.417
       10.00660       15.21147       18.46675       -0.834
        9.37739       15.20335       17.74546        0.417
       10.34293       16.10751       18.48173        0.417
       31.94473       19.46007       14.28094       -0.834
       32.72777       19.90609       14.60366        0.417
       31.23204       19.80886       14.81634        0.417
        7.38584       17.29050       12.22955       -0.834
        6.66285       17.64406       11.71137        0.417
        7.69310       16.53492       11.72861        0.417
       16.81188       26.30705        7.76376       -0.834
       16.88483       27.24907        7.91706        0.417
       17.55785       25.92957        8.22988        0.417
       27.74529       22.96871       23.98394       -0.834
       28.15899       22.37700       23.35548        0.417
       28.01850       22.63878       24.83994        0.417
       29.19723       17.17238       22.11345       -0.834
       29.19566       17.60190       22.96887        0.417
       30.02078       17.44556       21.70926        0.417
       12.73410       11.34995       14.29834       -0.834
       13.23385       11.16697       15.09395        0.417
       13.39676       11.43442       13.61280        0.417
       26.23460       22.20710        8.88030       -0.834
       25.54352       22.86711        8.82537        0.417
       26.08614       21.64058        8.12317        0.417
       19.63780       14.49741        1.72565       -0.834
       19.78653       13.56350        1.87375        0.417
       20.09393       14.93045        2.44720        0.417
       14.03464        5.83855       27.41734       -0.834
       13.87241        6.77020       27.26921        0.417
       14.92768        5.80197       27.75993        0.417
        7.69468        9.95495        7.68894       -0.834
        8.42140        9.98949        8.31096        0.417
        7.25708        9.12466        7.87699        0.417
       20.80704        8.92027       22.42466       -0.834
       20.20009        9.25798       21.76603        0.417
       20.40578        8.10481       22.72509        0.417
       10.65294       18.80025       15.34493       -0.834
       11.35223       19.42871       15.16536        0.417
       11.01617       17.95502       15.08057        0.417