%Nproc=32
%Mem=120Gb
%chk=temp.chk
#p cam-b3lyp/6-31+G(d,p) nosymm charge Freq 

Calculation for S0 with freq for abs spect

0  1
 C         15.67001       17.52951       16.07990
 C         17.29263       15.73382       15.50664
 C         17.69386       15.59301       16.75284
 C         17.02629       16.30618       17.76575
 N         16.02668       17.20797       17.42578
 H         17.67125       15.12497       14.63812
 H         18.45954       14.96849       17.03646
 O         17.17321       16.07324       18.97937
 O         14.84122       18.33227       15.79511
 N         16.36929       16.69331       15.18925
 H         15.95504       16.77448       14.32139
 H         15.50575       17.72944       18.15479
 O         20.18351       14.76443       14.26033
 H         20.63692       14.26475       14.93928
 H         20.85474       14.93568       13.59976
 O         21.08332       19.13905       15.26918
 H         21.04248       18.67246       16.10396
 H         20.16787       19.26352       15.01879
 O         15.32256       20.48228       16.50416
 H         15.52340       21.14862       17.16133
 H         15.96549       20.62817       15.81019
 O         12.98232       19.44014       15.77029
 H         13.07088       19.21673       14.84375
 H         13.83256       19.80826       16.01073
 O         18.12422       13.43094       13.19739
 H         17.59796       14.12618       12.80252
 H         18.82563       13.89249       13.65699
 O         17.34584       15.98112       20.38432
 H         16.39686       15.92724       20.27136
 H         17.46266       16.41382       21.23011
 O         13.55868       16.71260       13.05780
 H         13.54198       17.64903       13.25539
 H         14.18831       16.62964       12.34161
 O         19.69255       20.39110       18.76764
 H         20.60610       20.66826       18.69803
 H         19.73592       19.51628       19.15369
 O         12.35725       16.40752       19.07128
 H         12.86007       15.60166       19.18956
 H         12.79545       16.86022       18.35067
 O         17.13089       21.11134       18.84017
 H         18.04436       20.87456       18.67977
 H         16.97752       20.87084       19.75389
 O         14.05687       12.76888       18.01256
 H         13.16387       13.04000       17.79970
 H         14.31810       12.20839       17.28191
 O         18.35810       21.80129       15.13800
 H         19.11127       22.38478       15.23016
 H         18.59346       21.02382       15.64434
 O         16.81475       15.98844       12.78546
 H         16.48785       16.88224       12.88786
 H         16.03442       15.46786       12.59489
 O         21.08098       17.95274       18.51560
 H         20.47314       17.28292       18.20240
 H         21.54120       17.53710       19.24476
 O         12.97660       14.23698       15.20738
 H         13.26592       15.09618       14.90029
 H         13.76743       13.69792       15.19230
 O         15.25159       17.97562       21.28585
 H         14.67117       18.42412       21.90082
 H         14.74503       17.91881       20.47566
 O         15.19693       13.72092       20.50354
 H         14.83227       13.32984       19.70963
 H         16.12455       13.48571       20.48268
 O         15.99851       18.84825       13.52672
 H         15.81407       19.74936       13.26174
 H         16.87662       18.88459       13.90599
 O         13.25604       19.63914       18.92381
 H         12.82190       19.95439       18.13111
 H         13.95663       19.07075       18.60387
 O         19.64338       15.70631       18.44788
 H         19.64309       14.77365       18.23253
 H         18.80583       15.85125       18.88803
 
       12.31606        9.21542        9.40286       -0.834
       11.42789        9.39815        9.09625        0.417
       12.32734        8.27067        9.55636        0.417
       14.55342       30.92179       18.32101       -0.834
       15.29901       31.30154       18.78588        0.417
       14.74568       31.07237       17.39549        0.417
       21.86684        2.60074       14.49876       -0.834
       21.06918        3.05940       14.76258        0.417
       22.30839        2.39400       15.32249        0.417
       12.55374        4.40038       16.42607       -0.834
       12.27996        3.77927       15.75116        0.417
       11.98888        5.16190       16.29475        0.417
       11.56192       15.02779       11.94027       -0.834
       12.30169       15.21879       12.51688        0.417
       11.60999       15.69774       11.25829        0.417
       22.09295       21.83777       14.77255       -0.834
       21.95193       20.95324       15.11013        0.417
       21.32597       22.33089       15.06376        0.417
       13.94433       14.34512       26.98497       -0.834
       13.34388       14.94929       27.42167        0.417
       14.31894       13.82393       27.69508        0.417
       23.06966       29.04296       16.54620       -0.834
       23.17872       28.16507       16.91178        0.417
       22.40581       28.93833       15.86460        0.417
       18.10679       14.62591        2.81777       -0.834
       18.14133       15.36848        2.21475        0.417
       17.20854       14.30243        2.74892        0.417
       11.20862        6.70204        6.73738       -0.834
       10.97426        5.79796        6.52776        0.417
       10.71853        6.89803        7.53590        0.417
       26.13460       19.65260       21.20633       -0.834
       25.86947       18.87687       20.71220        0.417
       25.33953       19.93090       21.66091        0.417
       23.97811       20.59594       10.61733       -0.834
       24.09629       21.18279       11.36424        0.417
       23.34649       19.94430       10.92172        0.417
       16.13805       14.05811       25.46695       -0.834
       16.03718       14.30264       24.54702        0.417
       15.29623       14.27623       25.86694        0.417
       20.33288       19.04877       12.27918       -0.834
       19.58422       19.07900       11.68351        0.417
       19.94422       18.94934       13.14825        0.417
       27.25400       14.34385       10.19680       -0.834
       26.65454       13.72468       10.61334        0.417
       27.45347       14.98234       10.88147        0.417
        6.80786       15.38167       20.41053       -0.834
        6.88486       16.29930       20.14927        0.417
        6.88965       14.89154       19.59242        0.417
       24.56833       21.13097       16.93864       -0.834
       24.25205       20.37870       16.43835        0.417
       24.86947       21.75126       16.27472        0.417
       19.15360        6.83846       12.19714       -0.834
       18.56441        6.30728       11.66148        0.417
       18.58442        7.24053       12.85335        0.417
       15.34437       21.15349       12.17886       -0.834
       14.53553       21.35870       12.64779        0.417
       15.05413       20.70494       11.38463        0.417
       24.89274       12.71046       12.28635       -0.834
       24.60918       12.02442       12.89065        0.417
       25.28579       13.37805       12.84854        0.417
       17.90220       18.94691       10.67918       -0.834
       16.96208       18.81832       10.80520        0.417
       18.21217       18.11540       10.32036        0.417
       20.13111       22.28675        6.36024       -0.834
       19.31791       21.97061        5.96654        0.417
       20.61555       22.67474        5.63154        0.417
       20.62334       10.36399       22.35429       -0.834
       20.12042       10.05525       23.10794        0.417
       20.69456       11.30963       22.48438        0.417
       22.47017       16.99155       28.94977       -0.834
       22.92507       17.45431       28.24610        0.417
       21.65807       17.48271       29.07423        0.417
       16.98437       11.81549       27.01724       -0.834
       16.91427       12.68504       26.62329        0.417
       17.89510       11.75541       27.30568        0.417
       18.13587       23.55791       12.17297       -0.834
       17.91148       23.88937       11.30347        0.417
       17.86881       22.63888       12.15574        0.417
        8.55974       17.11281       26.95297       -0.834
        7.87472       16.44446       26.93631        0.417
        9.00738       17.01867       26.11214        0.417
       27.44395       15.44147       15.98857       -0.834
       27.51323       14.79048       16.68688        0.417
       27.06916       16.21205       16.41515        0.417
       16.11902       10.66301       29.76766       -0.834
       16.06581       10.92709       28.84915        0.417
       16.75745        9.94986       29.77574        0.417
       29.53650       23.46154       11.17293       -0.834
       28.70088       23.41016       10.70890        0.417
       29.62555       24.38583       11.40527        0.417
       22.04228       28.58623       21.07683       -0.834
       21.64108       29.03113       21.82337        0.417
       21.30169       28.28954       20.54794        0.417
       24.08981       26.81950       20.86995       -0.834
       24.69871       27.00736       20.15567        0.417
       23.46669       27.54587       20.85140        0.417
       13.72335        9.15664       24.64829       -0.834
       13.25692        8.74315       23.92187        0.417
       13.11704        9.09885       25.38673        0.417
        6.33312       20.96653       21.14588       -0.834
        5.79774       21.36041       21.83470        0.417
        5.89296       21.20949       20.33135        0.417
       29.42828       13.05828       12.01949       -0.834
       28.66763       13.08130       12.60011        0.417
       29.14575       13.52848       11.23507        0.417
       26.89530        7.36775       14.75885       -0.834
       26.65586        8.25492       15.02686        0.417
       27.74217        7.46868       14.32426        0.417
       18.19912       24.89716        4.26220       -0.834
       18.17775       24.17679        3.63225        0.417
       17.44118       24.74494        4.82664        0.417
       22.66238       13.88884       15.00056       -0.834
       22.65906       13.43493       14.15783        0.417
       22.59215       13.18935       15.65018        0.417
        7.58779       17.75828       14.93382       -0.834
        7.81263       18.66667       15.13506        0.417
        8.42984       17.33279       14.77215        0.417
       29.16411       20.76280       17.07346       -0.834
       28.63133       20.66902       16.28379        0.417
       28.52874       20.80317       17.78824        0.417
       23.57629       23.99414       21.63440       -0.834
       23.66211       24.94725       21.65538        0.417
       24.44561       23.66968       21.86943        0.417
       28.38574       15.45606       24.91454       -0.834
       28.84019       14.76976       24.42598        0.417
       28.90138       16.24639       24.75417        0.417
       14.60055       14.55704       23.11928       -0.834
       14.88028       14.46423       22.20858        0.417
       13.64635       14.61663       23.07236        0.417
        4.84912       13.93591       16.01621       -0.834
        4.86465       14.16434       15.08680        0.417
        3.91874       13.87623       16.23316        0.417
        4.36124       13.92200       19.80201       -0.834
        5.15869       14.36764       20.08787        0.417
        3.81207       13.88684       20.58522        0.417
       10.84583       10.09715       13.11682       -0.834
       10.33543        9.89659       12.33228        0.417
       10.19066       10.30944       13.78160        0.417
       22.36031       17.71088       23.29072       -0.834
       22.29775       18.33262       24.01581        0.417
       22.52147       16.86653       23.71181        0.417
       14.40588       13.01094       29.38665       -0.834
       13.48259       12.78575       29.27221        0.417
       14.72030       12.40221       30.05509        0.417
       18.54005       29.78175       19.44338       -0.834
       19.41896       30.07833       19.67958        0.417
       18.64828       28.85434       19.23260        0.417
       13.27983       24.82840       28.72609       -0.834
       12.94794       23.94411       28.57079        0.417
       14.23086       24.74305       28.65886        0.417
       26.47513       18.21468       16.70445       -0.834
       25.59354       18.30184       17.06699        0.417
       26.35580       18.30473       15.75900        0.417
       22.40013       12.55406       19.57498       -0.834
       22.84973       13.39174       19.46368        0.417
       21.47456       12.78650       19.64939        0.417
       14.27958       16.41419       10.33129       -0.834
       14.67533       16.86578        9.58585        0.417
       13.34321       16.59677       10.25295        0.417
       19.63174        3.88124       12.18239       -0.834
       18.67600        3.84850       12.22383        0.417
       19.88101        4.49521       12.87314        0.417
       11.36152       12.64930       10.87335       -0.834
       11.26947       12.08525       11.64121        0.417
       11.30918       13.53933       11.22170        0.417
       14.39002       19.21627        5.09107       -0.834
       13.78936       18.59557        5.50358        0.417
       14.98450       18.66960        4.57727        0.417
       12.74264       27.17305       18.64512       -0.834
       13.41914       26.98500       17.99458        0.417
       13.21847       27.55500       19.38264        0.417
       16.85620       10.82673       17.20827       -0.834
       17.05546       10.48742       18.08085        0.417
       17.34369       10.25785       16.61248        0.417
       18.85984        9.55294       24.49470       -0.834
       19.25540        9.04986       25.20651        0.417
       17.92516        9.56610       24.70069        0.417
       14.20746       25.64506        4.22885       -0.834
       14.69912       26.46570        4.19623        0.417
       13.79846       25.64459        5.09427        0.417
       10.94418       29.39192       15.92263       -0.834
       10.45779       28.69114       16.35687        0.417
       11.13237       30.02079       16.61929        0.417
       21.80573        6.53795       11.54861       -0.834
       20.96823        6.78173       11.94281        0.417
       22.14276        7.35341       11.17758        0.417
       21.24740       10.90553       26.43307       -0.834
       21.69270       10.10124       26.16646        0.417
       21.58653       11.57563       25.83962        0.417
        8.37788       13.36562       15.63421       -0.834
        7.94540       14.03464       15.10355        0.417
        8.22089       12.54722       15.16325        0.417
        7.86846        9.67999       24.07231       -0.834
        7.08282        9.48630       23.56094        0.417
        8.42012       10.19131       23.48031        0.417
       15.81045       22.32472       24.11836       -0.834
       15.43042       21.89145       23.35411        0.417
       16.51873       22.86133       23.76252        0.417
       25.89620       17.90985        8.69830       -0.834
       24.94463       17.92179        8.80130        0.417
       26.15521       18.82963        8.75437        0.417
       18.95327        4.79949       22.89455       -0.834
       18.93637        5.43162       22.17596        0.417
       18.79546        5.32413       23.67945        0.417
       15.67465        7.00616       28.27987       -0.834
       14.79087        7.36260       28.36998        0.417
       15.78471        6.87258       27.33845        0.417
       27.68679       24.28160       19.79057       -0.834
       28.58638       24.59689       19.87745        0.417
       27.76052       23.32861       19.84151        0.417
        7.80338       21.16990       10.34990       -0.834
        7.18652       21.79562        9.97019        0.417
        7.93490       20.51588        9.66347        0.417
       12.98334        9.06687       14.35338       -0.834
       13.67102        8.78220       13.75147        0.417
       12.28623        9.39309       13.78429        0.417
       22.97007       24.45356       10.04478       -0.834
       22.11077       24.28080        9.66009        0.417
       23.51352       23.71982        9.75750        0.417
        5.86579        9.29922       12.28408       -0.834
        5.00532        9.71258       12.21369        0.417
        5.86753        8.63050       11.59921        0.417
       11.67918       17.48482       22.31461       -0.834
       11.85704       16.56314       22.12723        0.417
       10.88268       17.47245       22.84533        0.417
       19.62974        8.41921       27.20692       -0.834
       19.45667        9.27453       27.60026        0.417
       20.57682        8.40582       27.06875        0.417
       16.98970       20.02907       21.58921       -0.834
       16.13254       20.42499       21.74657        0.417
       16.81008       19.09243       21.50756        0.417
       24.58135       15.84390       12.26723       -0.834
       23.88312       15.23514       12.02616        0.417
       24.28173       16.69325       11.94311        0.417
       13.35412       19.35233       22.81635       -0.834
       13.17638       19.43643       23.75313        0.417
       12.83993       18.59310       22.54173        0.417
       29.20419       10.29122       21.14605       -0.834
       29.15462        9.54813       21.74737        0.417
       30.13984       10.40052       20.97623        0.417
       17.22225       18.24932       30.98721       -0.834
       17.00699       18.75472       30.20333        0.417
       16.76288       17.41773       30.87024        0.417
       16.81711       11.14367       22.56367       -0.834
       17.20521       10.42080       23.05672        0.417
       15.88519       10.92997       22.51803        0.417
       17.36467       19.91871       28.43304       -0.834
       17.26474       19.02905       28.09427        0.417
       16.64818       20.41029       28.03152        0.417
       14.39296        5.76521        8.08793       -0.834
       14.66208        5.68860        7.17254        0.417
       14.69384        6.63386        8.35464        0.417
       18.55487        8.91806       15.41568       -0.834
       17.95524        8.30124       14.99591        0.417
       18.95287        8.41842       16.12856        0.417
       16.12141        8.42220       20.80448       -0.834
       16.79407        8.80719       20.24275        0.417
       15.29377        8.67233       20.39378        0.417
       30.29226       18.24626       16.54391       -0.834
       30.14230       19.19124       16.51615        0.417
       29.99283       17.93061       15.69131        0.417
       13.86902       11.49941       22.51591       -0.834
       13.12060       11.54633       23.11083        0.417
       14.17013       12.40460       22.43720        0.417
       18.90070        8.81281        8.12833       -0.834
       19.83531        9.00661        8.20029        0.417
       18.86062        8.01860        7.59555        0.417
       10.90557        6.09789       25.02913       -0.834
       11.61140        5.90495       24.41204        0.417
       11.08715        6.98798       25.33078        0.417
        9.03731       27.41730       16.26818       -0.834
        9.66289       26.77480       16.60297        0.417
        9.05753       27.29965       15.31845        0.417
       26.76902       14.78551       21.71403       -0.834
       27.26186       15.55394       22.00189        0.417
       27.30421       14.04070       21.98799        0.417
        7.45413       26.14609       19.28435       -0.834
        7.25711       27.06088       19.48576        0.417
        8.27356       25.96968       19.74657        0.417
        4.23192       20.01948       15.50749       -0.834
        4.05676       20.95970       15.46815        0.417
        4.18863       19.72898       14.59647        0.417
       20.02451       16.33829        7.20622       -0.834
       19.63053       16.98426        6.61993        0.417
       19.95115       15.50908        6.73371        0.417
       20.23988       15.08312       21.13216       -0.834
       19.52059       15.70907       21.21604        0.417
       20.78203       15.43382       20.42553        0.417
        8.19269       10.27602       11.12871       -0.834
        7.32422       10.00604       11.42722        0.417
        8.21643       10.02849       10.20437        0.417
       13.09966        3.30363       10.23013       -0.834
       12.33570        3.61294       10.71689        0.417
       13.78394        3.20847       10.89265        0.417
       11.84541        6.80622       14.94857       -0.834
       12.20653        6.31569       14.21019        0.417
       12.23654        7.67656       14.87277        0.417
       25.48249       27.22256       11.12527       -0.834
       25.58641       28.09535       11.50431        0.417
       24.88611       27.35072       10.38762        0.417
       15.97572       26.45587       26.66816       -0.834
       15.62994       25.56467       26.61880        0.417
       15.99325       26.75714       25.75978        0.417
       10.97033       12.27885       21.22213       -0.834
       10.34326       11.55988       21.30025        0.417
       10.70587       12.74270       20.42770        0.417
        4.89588       21.95659       19.14138       -0.834
        4.14263       21.63430       18.64644        0.417
        4.96899       22.87838       18.89401        0.417
       28.00672       17.09003       22.22583       -0.834
       27.59582       17.94391       22.36102        0.417
       28.94142       17.25021       22.35585        0.417
       13.61531        9.26830       20.73641       -0.834
       13.66606       10.11851       21.17321        0.417
       13.26377        8.67709       21.40209        0.417
        7.14688        7.02667       18.43735       -0.834
        7.60072        7.26307       17.62841        0.417
        7.35683        7.73491       19.04608        0.417
       17.12052        6.64238        9.92153       -0.834
       16.85643        7.21577        9.20201        0.417
       16.74425        5.79055        9.70007        0.417
       30.38876       11.22052       16.80166       -0.834
       30.63159       11.53179       15.92966        0.417
       30.28593       10.27444       16.69873        0.417
        8.22674       20.48124       15.16705       -0.834
        7.52690       21.12653       15.26733        0.417
        8.88803       20.74289       15.80773        0.417
       17.65372       11.19490        7.46054       -0.834
       17.83529       10.25579        7.42390        0.417
       18.49987       11.60966        7.29247        0.417
       19.91325        7.74810       17.24819       -0.834
       19.89423        7.92327       18.18903        0.417
       20.84322        7.75472       17.02160        0.417
        8.97108        8.83707       19.88640       -0.834
        9.80353        8.84390       19.41395        0.417
        9.21806        8.90408       20.80876        0.417
       18.17322       20.81103        8.81818       -0.834
       17.48163       20.66897        8.17184        0.417
       18.10494       20.06269        9.41110        0.417
       10.06785       26.20066       24.32821       -0.834
        9.43555       26.24948       25.04518        0.417
       10.17544       25.26336       24.16652        0.417
       10.34131       13.44431       30.29316       -0.834
        9.89419       12.81340       30.85731        0.417
       10.89940       12.90872       29.72931        0.417
       18.92793       17.20912       25.96833       -0.834
       19.27633       16.44337       26.42492        0.417
       19.69928       17.73697       25.76190        0.417
       24.17546       22.11516       12.88015       -0.834
       23.37274       21.96205       13.37858        0.417
       24.87889       21.83696       13.46669        0.417
       14.80371       24.63611       22.21457       -0.834
       15.02656       23.80223       22.62834        0.417
       14.87617       25.28038       22.91877        0.417
       18.45558       12.41854       20.71532       -0.834
       17.87980       12.05962       21.39051        0.417
       19.00218       13.05323       21.17861        0.417
       11.89370       30.11630       21.09022       -0.834
       12.10170       30.57143       21.90620        0.417
       11.05152       30.48190       20.81947        0.417
       26.75439       12.14110       26.76500       -0.834
       26.64014       11.73186       25.90726        0.417
       26.27427       12.96684       26.70279        0.417
       16.06990        5.60604       16.41918       -0.834
       16.75679        5.40713       17.05546        0.417
       15.44284        6.14348       16.90310        0.417
       31.60834       19.05567       12.25442       -0.834
       30.90312       18.41045       12.30532        0.417
       31.88909       19.17641       13.16152        0.417
       28.09721       26.80387       16.52049       -0.834
       27.24800       26.81009       16.07887        0.417
       28.68000       27.27709       15.92665        0.417
       25.01093        8.50538       24.06328       -0.834
       25.22987        7.92467       23.33453        0.417
       24.52624        9.22518       23.65930        0.417
       30.42238       16.63004       11.58721       -0.834
       29.46765       16.63812       11.51900        0.417
       30.72056       16.29506       10.74157        0.417
        8.85332       23.55633       18.42514       -0.834
        8.05577       24.02493       18.17905        0.417
        9.53760       23.94433       17.87975        0.417
       11.58675       23.20405        5.97864       -0.834
       12.19446       23.69748        6.52950        0.417
       11.00631       23.86828        5.60698        0.417
       29.52740       16.82226       14.45912       -0.834
       29.03444       16.16407       14.94903        0.417
       29.57034       16.47574       13.56788        0.417
       24.64500       27.27789       23.50760       -0.834
       24.38119       26.99100       22.63334        0.417
       24.02070       26.85529       24.09742        0.417
       17.79556       23.83714       23.07679       -0.834
       18.41169       24.55129       23.23993        0.417
       18.29268       23.20525       22.55735        0.417
       29.29165       13.21006       23.76091       -0.834
       29.47589       12.41177       24.25591        0.417
       29.74140       13.08359       22.92547        0.417
       22.64256       20.33542        4.46267       -0.834
       22.76498       19.99817        3.57526        0.417
       21.90505       20.94120        4.38957        0.417
       16.79041       10.44704        2.36610       -0.834
       16.51668       10.99057        3.10493        0.417
       16.33895       10.82376        1.61079        0.417
       15.87876       13.34554        8.19632       -0.834
       16.54866       12.75894        7.84510        0.417
       15.18403       12.76159        8.50059        0.417
       22.95321       25.71179       24.90664       -0.834
       22.71037       25.84594       25.82275        0.417
       22.11793       25.62791       24.44676        0.417
       15.34347       23.48849       26.46726       -0.834
       15.75593       23.05779       25.71853        0.417
       15.84709       23.18859       27.22401        0.417
       23.36259       13.48652        7.47709       -0.834
       23.11766       14.37954        7.23468        0.417
       24.10485       13.27880        6.90952        0.417
       17.28805       24.05149       18.66716       -0.834
       17.37274       24.68284       19.38162        0.417
       17.15825       23.21004       19.10459        0.417
       26.40072       15.96299        6.37983       -0.834
       26.35421       16.46525        7.19335        0.417
       26.84932       16.54330        5.76483        0.417
        3.43145       20.90659       12.82882       -0.834
        2.62281       21.41814       12.85408        0.417
        3.37394       20.40683       12.01448        0.417
       16.15207       20.43240        6.92590       -0.834
       16.76934       20.74000        6.26212        0.417
       15.42407       20.06492        6.42469        0.417
       10.32781       26.36265       13.46958       -0.834
       11.11281       26.88866       13.31688        0.417
        9.83947       26.41623       12.64806        0.417
       19.18179       27.17338       19.07336       -0.834
       19.40087       26.75401       18.24127        0.417
       18.85964       26.45991       19.62419        0.417
       23.35285       14.81494       17.72337       -0.834
       22.86949       14.90597       16.90220        0.417
       24.23403       14.55417       17.45553        0.417
       31.81765       20.66719       17.34136       -0.834
       30.90249       20.81646       17.10380        0.417
       31.81189       20.61399       18.29706        0.417
       16.64952        7.16569       14.12580       -0.834
       16.10808        6.52124       14.58161        0.417
       16.02668        7.68771       13.62003        0.417
        7.28680       17.85787       24.35776       -0.834
        7.01210       18.38218       23.60552        0.417
        7.32832       18.48156       25.08269        0.417
       26.21426       21.95934        5.79978       -0.834