%Nproc=32
%Mem=120Gb
%chk=temp.chk
#p cam-b3lyp/6-31+G(d,p) nosymm charge Freq 

Calculation for S0 with freq for abs spect

0  1
 C         15.67001       17.52951       16.07990
 C         17.29263       15.73382       15.50664
 C         17.69386       15.59301       16.75284
 C         17.02629       16.30618       17.76575
 N         16.02668       17.20797       17.42578
 H         17.67125       15.12497       14.63812
 H         18.45954       14.96849       17.03646
 O         17.17321       16.07324       18.97937
 O         14.84122       18.33227       15.79511
 N         16.36929       16.69331       15.18925
 H         15.95504       16.77448       14.32139
 H         15.50575       17.72944       18.15479
 O         15.22937       20.81101       13.89286
 H         15.87087       20.26283       13.44096
 H         15.72945       21.57195       14.18802
 O         18.21030       20.95349       16.27268
 H         19.12417       21.22206       16.36721
 H         17.93860       21.31903       15.43078
 O         12.03669       17.78922       18.14530
 H         11.08528       17.88772       18.18273
 H         12.17384       16.94574       17.71406
 O         20.75013       17.24312       13.26229
 H         20.09208       17.10557       13.94367
 H         21.56236       17.40487       13.74224
 O         14.30696       17.85565       12.60681
 H         14.87492       18.61613       12.73059
 H         14.86975       17.10341       12.79024
 O         13.76052       13.79917       16.81494
 H         13.50523       14.72063       16.77070
 H         14.38585       13.75786       17.53847
 O         17.83904       12.38636       18.74489
 H         18.63911       12.60011       19.22493
 H         17.75918       13.08033       18.09046
 O         20.66980       16.90822       17.23135
 H         21.53084       17.12006       16.87084
 H         20.12679       17.66692       17.01744
 O         13.96399       19.23195       19.98078
 H         13.75096       20.11556       19.68067
 H         13.21554       18.69983       19.71078
 O         15.94586       14.23795       20.83555
 H         15.88946       14.22672       19.88008
 H         15.07464       14.50979       21.12420
 O         19.47243       15.24171       19.12867
 H         19.89911       15.99157       18.71408
 H         20.12384       14.90483       19.74382
 O         13.50733       15.59265       19.35201
 H         12.96465       14.82096       19.51395
 H         13.33925       16.16554       20.10018
 O         15.92607       15.55129       13.14591
 H         16.71976       15.06201       12.92934
 H         15.39934       14.93897       13.65957
 O         18.77769       18.59766       18.48477
 H         18.53925       19.20207       19.18767
 H         18.33899       18.94677       17.70895
 O         15.94031       21.62291       17.44021
 H         16.65281       21.26666       16.90950
 H         16.00798       21.15946       18.27500
 O         18.60866       14.39275       12.83522
 H         19.18388       14.79454       13.48633
 H         19.17802       14.22149       12.08507
 O         17.35751       17.03367       20.54660
 H         17.24066       16.09099       20.42856
 H         18.13575       17.24544       20.03112
 O         16.83966       20.21029       19.82165
 H         16.16647       19.52982       19.82417
 H         16.93080       20.46110       20.74090
 O         19.74939       14.37792       15.95747
 H         20.51302       14.16465       15.42118
 H         20.05932       15.05644       16.55729
 O         12.01503       15.84474       16.20650
 H         11.95387       16.39238       15.42382
 H         11.15534       15.42967       16.27675
 O         15.09314       13.40543       14.43952
 H         15.76800       12.82697       14.79476
 H         14.66993       13.78251       15.21084
 O         17.67745       12.61819       15.81628
 H         18.04804       11.96654       16.41147
 H         18.39020       13.23934       15.66662
 
       16.72671       13.10029       22.96830       -0.834
       17.27594       12.35109       22.73752        0.417
       16.60789       13.57350       22.14476        0.417
       21.03122       24.26311        3.93466       -0.834
       20.26883       24.65863        3.51209        0.417
       20.70115       23.94306        4.77421        0.417
       15.00890       19.72518        3.04461       -0.834
       15.37527       20.58279        2.82895        0.417
       14.06235       19.84079        2.96144        0.417
        2.98104       20.91533       22.30796       -0.834
        3.15194       21.52039       23.02971        0.417
        3.33135       20.07710       22.60944        0.417
        8.77678       13.48682       11.87981       -0.834
        8.66681       12.54052       11.78661        0.417
        9.50172       13.58452       12.49718        0.417
       10.55748       25.54938       11.55440       -0.834
       10.03603       25.23457       12.29279        0.417
       11.43632       25.66833       11.91463        0.417
        9.91819       12.76849       23.76692       -0.834
       10.28856       13.64842       23.83642        0.417
        8.98358       12.88747       23.93598        0.417
       16.90925       16.97493       25.40340       -0.834
       17.16167       17.86250       25.14899        0.417
       15.95222       16.98361       25.38704        0.417
       17.83007       20.96539        4.27264       -0.834
       18.75423       20.72498        4.20663        0.417
       17.42960       20.59779        3.48478        0.417
       12.65530       19.21021       24.98227       -0.834
       13.42434       19.50517       24.49461        0.417
       12.85585       19.41751       25.89498        0.417
       10.48216       28.45144       17.12373       -0.834
       10.18796       29.09319       16.47733        0.417
       11.31966       28.79303       17.43707        0.417
       21.49414       14.55969       20.80087       -0.834
       22.37391       14.38103       20.46874        0.417
       21.45747       14.10275       21.64117        0.417
       14.68625       14.01606        1.06172       -0.834
       13.86643       14.36411        1.41242        0.417
       15.26348       13.94927        1.82236        0.417
       20.59224       11.53534       15.49595       -0.834
       21.28297       11.70427       16.13673        0.417
       19.86217       11.19621       16.01385        0.417
       26.51128       21.42518       21.23681       -0.834
       27.03214       20.70114       20.88939        0.417
       25.66513       21.34500       20.79654        0.417
       11.38028       14.08423       19.34522       -0.834
       10.78919       13.61609       19.93491        0.417
       10.81862       14.38325       18.63011        0.417
        1.72242       17.40751       17.47227       -0.834
        1.16987       17.61687       18.22533        0.417
        2.41610       18.06676       17.49293        0.417
       12.99289       20.41116       10.56899       -0.834
       13.50182       20.32397        9.76301        0.417
       12.13666       20.04157       10.35332        0.417
       25.04923       25.57508       10.30261       -0.834
       24.64120       26.43404       10.19338        0.417
       24.31527       24.97678       10.44251        0.417
       16.83716       19.40532       12.13167       -0.834
       17.33811       18.80182       11.58298        0.417
       16.56754       20.10407       11.53561        0.417
       18.72122       24.26409       15.75981       -0.834
       19.02970       23.44609       15.37002        0.417
       18.75425       24.89854       15.04383        0.417
       16.91969        7.50132        8.43025       -0.834
       16.83644        8.32965        8.90266        0.417
       17.78753        7.17530        8.66857        0.417
        7.42315       16.59619       25.65460       -0.834
        6.65128       16.81571       25.13282        0.417
        8.10438       17.18850       25.33628        0.417
       19.92206       11.85573       25.11621       -0.834
       19.06490       12.15362       24.81162        0.417
       19.79425       10.93038       25.32507        0.417
       15.47686        2.82411       10.92932       -0.834
       16.25212        3.23579       11.31105        0.417
       15.44370        3.15932       10.03335        0.417
       24.43122       15.49678       10.61649       -0.834
       24.82849       14.84670       11.19597        0.417
       24.06719       14.98425        9.89467        0.417
       20.21448       28.66990       24.10152       -0.834
       19.43058       28.38979       24.57404        0.417
       20.70753       27.86268       23.95480        0.417
        9.76662       13.77376        9.07368       -0.834
       10.59855       14.22179        9.22661        0.417
        9.51554       13.43407        9.93264        0.417
       14.74626       28.47961        8.60109       -0.834
       14.04215       29.11800        8.48743        0.417
       15.50095       28.87439        8.16426        0.417
       23.92174       13.35416       19.21628       -0.834
       24.41088       12.75336       19.77844        0.417
       24.53325       14.06908       19.03962        0.417
       23.47999        8.45027        9.47704       -0.834
       22.86170        8.95513       10.00530        0.417
       23.55874        7.61312        9.93443        0.417
       31.25296       21.04808       17.84236       -0.834
       31.38826       20.97418       18.78707        0.417
       30.69441       20.30295       17.62091        0.417
       23.41651       22.01768       23.53474       -0.834
       22.96194       22.21379       22.71551        0.417
       22.71501       21.86830       24.16863        0.417
        8.27551       24.73073       12.72592       -0.834
        7.92662       23.89469       13.03507        0.417
        7.63843       25.38085       13.02209        0.417
        9.32541       12.04001        6.62443       -0.834
        9.23224       11.10149        6.78794        0.417
        9.16916       12.44861        7.47582        0.417
       12.63201       22.09035       22.66559       -0.834
       12.24520       21.21487       22.65378        0.417
       13.43128       22.00662       22.14560        0.417
        5.16019       20.07504       10.64714       -0.834
        5.84732       19.82663       11.26551        0.417
        5.63102       20.31662        9.84953        0.417
       27.07811       13.14216       16.90487       -0.834
       27.17945       12.20717       16.72666        0.417
       27.38737       13.24994       17.80430        0.417
       23.20559       15.19703       24.59639       -0.834
       22.72687       15.49958       25.36810        0.417
       22.61205       14.57616       24.17393        0.417
       19.50051       26.29412       13.67830       -0.834
       18.65626       26.72172       13.82196        0.417
       20.13947       26.88412       14.07813        0.417
       22.26879       24.82352       21.46839       -0.834
       23.14471       25.12279       21.22459        0.417
       21.95044       24.35776       20.69512        0.417
        7.08725       20.42302       20.49881       -0.834
        7.93374       20.86301       20.42073        0.417
        6.47344       21.12191       20.72469        0.417
       18.89145       13.39494       27.23450       -0.834
       19.66123       13.08234       26.75913        0.417
       18.54297       14.10046       26.68950        0.417
       20.63951       17.13910       29.05510       -0.834
       21.18904       17.20172       28.27387        0.417
       21.21667       17.39252       29.77544        0.417
       19.67461       16.97682       23.91022       -0.834
       19.31760       16.12267       24.15351        0.417
       20.18457       17.24984       24.67287        0.417
       11.47250       15.10981       23.48618       -0.834
       11.54423       15.96388       23.05997        0.417
       11.83602       15.24687       24.36099        0.417
       11.56932        5.87971        9.99580       -0.834
       11.94941        6.74011       10.17319        0.417
       12.24477        5.25830       10.26755        0.417
       14.07465       19.99719       29.17358       -0.834
       14.03111       19.23990       28.58976        0.417
       14.21803       19.62234       30.04258        0.417
        5.50852       13.40744       27.29869       -0.834
        6.27736       13.89913       27.00996        0.417
        4.79481       14.04500       27.27951        0.417
       26.32628       11.82291       22.79664       -0.834
       25.95201       10.94810       22.69240        0.417
       26.08351       12.08350       23.68512        0.417
       13.08187       22.34296       19.39875       -0.834
       12.78061       22.23562       18.49656        0.417
       12.51172       23.01996       19.76321        0.417
       12.71650        6.91752       18.46581       -0.834
       12.77728        6.96854       17.51190        0.417
       12.39147        7.77762       18.73192        0.417
       15.14666       25.24375       24.33032       -0.834
       14.21137       25.41494       24.44061        0.417
       15.57800       25.98805       24.75007        0.417
       24.87208       13.35979       15.39375       -0.834
       24.88791       14.30583       15.24890        0.417
       25.65676       13.18329       15.91276        0.417
       17.57653       11.96456       12.24024       -0.834
       17.77224       12.78796       12.68740        0.417
       16.62049       11.93054       12.20758        0.417
       17.61134        9.00482        4.66248       -0.834
       18.52268        9.11537        4.39141        0.417
       17.11775        8.98558        3.84258        0.417
       24.14568       21.53274       19.78438       -0.834
       24.05173       22.20240       19.10691        0.417
       23.57859       20.81780       19.49540        0.417
       10.39654       17.59810       25.53343       -0.834
       10.99494       17.04755       26.03844        0.417
       10.96547       18.09258       24.94348        0.417
        8.53460       15.65761        3.25013       -0.834
        8.50022       16.24390        4.00598        0.417
        8.83665       14.82263        3.60763        0.417
        9.12051       17.78095       18.48173       -0.834
        9.08760       17.25640       19.28173        0.417
        8.36914       17.48353       17.96867        0.417
       15.60628        9.91962        6.22301       -0.834
       16.34129        9.66251        5.66633        0.417
       14.85137        9.92904        5.63457        0.417
       20.20698       12.11082       20.31528       -0.834
       20.52499       12.93425       20.68549        0.417
       20.98551       11.55689       20.25808        0.417
       24.17790       26.30234       24.70271       -0.834
       23.98271       26.65306       23.83373        0.417
       24.11770       27.05894       25.28595        0.417
       21.32961       13.85012       29.71470       -0.834
       20.56863       14.41071       29.86596        0.417
       20.95983       13.01799       29.41959        0.417
       14.61066       27.45073       11.07838       -0.834
       15.29155       27.69777       11.70415        0.417
       14.91103       27.80889       10.24307        0.417
        9.91018        9.67548        4.39692       -0.834
        9.72110        9.60132        5.33233        0.417
       10.48871        8.93624        4.20968        0.417
       19.09556       10.49808       17.19688       -0.834
       18.83877       11.03686       17.94521        0.417
       18.58869        9.69219       17.29619        0.417
       24.93532       22.63556        6.14112       -0.834
       24.17558       22.13731        5.83983        0.417
       25.42978       22.01730        6.67917        0.417
       24.73609       15.99691       14.99226       -0.834
       23.88927       16.07111       14.55223        0.417
       24.74319       16.71762       15.62216        0.417
       15.51614        5.52213       15.54234       -0.834
       15.09404        6.38106       15.52502        0.417
       16.36109        5.67842       15.96408        0.417
       19.79152        8.02348       11.49080       -0.834
       19.58951        8.95911       11.48750        0.417
       19.43986        7.70496       12.32213        0.417
       22.39445       11.51023       13.24917       -0.834
       21.61851       11.64612       13.79294        0.417
       22.15046       10.79956       12.65614        0.417
       28.45204        7.77711       14.47539       -0.834
       28.51697        7.76868       15.43034        0.417
       27.52595        7.94318       14.29927        0.417
       29.63158       19.73567       15.27067       -0.834
       28.76052       20.02892       15.00330        0.417
       29.46600       19.05933       15.92747        0.417
       30.36438       19.57560       12.71898       -0.834
       29.78257       18.87426       12.42599        0.417
       30.18003       19.66549       13.65397        0.417
       22.42681        8.58917       12.39966       -0.834
       21.53593        8.41538       12.09574        0.417
       22.61018        7.88447       13.02098        0.417
       10.43912       11.35251       21.70352       -0.834
       10.22576       11.90469       22.45572        0.417
        9.63461       11.33158       21.18529        0.417
       25.45004       24.69519       13.48545       -0.834
       26.14400       24.89510       12.85719        0.417
       24.87292       25.45829       13.45643        0.417
       13.92321       25.05915       17.46166       -0.834
       13.18482       25.59898       17.74376        0.417
       14.26199       25.50322       16.68432        0.417
       25.85408       15.65957        5.61843       -0.834
       26.02560       16.44473        5.09850        0.417
       25.46628       15.98868        6.42931        0.417
       16.64685        2.74072       17.89950       -0.834
       16.15685        2.02660       18.30712        0.417
       15.99250        3.42126       17.74162        0.417
       22.33044       18.53293        2.53241       -0.834
       22.61019       19.24310        1.95479        0.417
       22.99861       18.50322        3.21717        0.417
       21.96835       10.97992       27.69225       -0.834
       21.40009       10.38087       27.20804        0.417
       21.44274       11.25471       28.44355        0.417
       15.85127       28.69462       22.92233       -0.834
       16.74530       29.02130       23.02343        0.417
       15.93678       27.74247       22.97061        0.417
       21.83892       26.93752       15.33434       -0.834
       22.68464       27.22628       15.67728        0.417
       21.23379       27.04233       16.06855        0.417
       13.73184       30.96583       15.21654       -0.834
       13.35280       31.25950       14.38809        0.417
       13.24931       31.45033       15.88635        0.417
       20.83906       26.05844       23.26001       -0.834
       20.30610       25.28047       23.42419        0.417
       21.42495       25.80204       22.54781        0.417
       28.18180       24.30825       12.07300       -0.834
       28.51527       23.51893       11.64638        0.417
       28.75053       25.01034       11.75702        0.417
       15.46253        8.55504       10.93619       -0.834
       15.82613        8.80777       11.78480        0.417
       15.61167        7.61104       10.88273        0.417
        3.79380       11.39386       13.05936       -0.834
        3.01753       11.76684       12.64158        0.417
        4.24371       10.92621       12.35569        0.417
       13.13776       13.36591        8.47618       -0.834
       12.84855       13.65200        7.60973        0.417
       14.08385       13.51129        8.47350        0.417
       18.16488       14.74786       24.98954       -0.834
       17.60762       14.12705       24.52020        0.417
       17.72707       15.59224       24.88192        0.417
       26.24302        8.21407       21.13096       -0.834
       25.78656        7.42169       20.84809        0.417
       25.84592        8.91652       20.61608        0.417
       12.65574        8.30827       28.09518       -0.834
       13.49582        7.89314       28.29051        0.417
       12.38164        8.69766       28.92553        0.417
        5.13906       16.51008       24.30223       -0.834
        4.35143       16.74188       24.79431        0.417
        5.05630       15.56934       24.14608        0.417
       21.16479       21.06182       24.85093       -0.834
       20.78716       20.54530       25.56285        0.417
       20.46745       21.11567       24.19744        0.417
       12.93253       29.29173       17.86383       -0.834
       13.33340       28.91325       17.08135        0.417
       13.50640       30.02094       18.09869        0.417
       14.29211       25.27903        6.16999       -0.834
       14.84835       25.22224        6.94691        0.417
       13.59269       25.88312        6.41923        0.417
        7.59256        9.20651       10.71759       -0.834
        8.26733        9.76868       11.09822        0.417
        7.87063        8.31681       10.93519        0.417
       16.22810       13.72639        3.18493       -0.834
       15.54811       13.97273        3.81196        0.417
       17.04911       13.84355        3.66290        0.417
       13.68706       30.12484       22.69191       -0.834
       13.19782       29.62167       22.04099        0.417
       14.56067       29.73364       22.69061        0.417
       12.86899       18.11090        6.63828       -0.834
       12.27572       18.81322        6.37181        0.417
       13.02271       18.26720        7.57003        0.417
        9.53227       10.56484       28.35002       -0.834
        8.64304       10.43023       28.67771        0.417
        9.98784        9.74693       28.54928        0.417
       20.03584       20.54048        9.83360       -0.834
       20.08162       21.31013        9.26634        0.417
       19.24890       20.07727        9.54656        0.417
       20.70037       15.75884        8.30590       -0.834
       20.63814       14.81151        8.42801        0.417
       20.70712       16.11539        9.19419        0.417
       15.62421       13.32612       31.52791       -0.834
       15.50663       13.65760       32.41816        0.417
       14.80570       13.54239       31.08125        0.417
       11.63505       17.74246       14.04861       -0.834
       11.72627       18.65988       14.30601        0.417
       12.44032       17.54635       13.56974        0.417
       16.37852       21.83150        6.71685       -0.834
       16.74501       21.41486        5.93689        0.417
       15.45431       21.96439        6.50611        0.417
        6.76804       13.61379        4.56727       -0.834
        7.19726       13.81072        5.39987        0.417
        7.25312       12.86608        4.21815        0.417
        6.01581       18.22043       19.44620       -0.834
        6.33050       19.06927       19.75713        0.417
        5.70151       17.77759       20.23445        0.417
        8.82139       16.66710       21.03910       -0.834
        8.42370       17.04337       21.82427        0.417
        9.72264       16.47257       21.29624        0.417
       22.94907        6.87462       14.68489       -0.834
       23.55639        6.15809       14.50056        0.417
       22.54282        6.63649       15.51826        0.417
       28.08276       25.50940       15.73968       -0.834
       27.65418       24.71648       15.41745        0.417
       28.24969       26.02857       14.95302        0.417
       16.82697       16.49165       29.11700       -0.834
       17.41570       17.04246       29.63299        0.417
       17.35058       16.22168       28.36257        0.417
        8.29627       10.91293       20.27164       -0.834
        8.28115       10.42148       19.45037        0.417
        7.48681       11.42370       20.26060        0.417
       15.05651        8.83455       16.24245       -0.834
       15.62676        8.53492       16.95045        0.417
       14.39974        9.37850       16.67719        0.417
       18.33596       23.98485       26.77890       -0.834
       17.72624       23.38261       27.20525        0.417
       19.16045       23.86523       27.25023        0.417
       18.82646       23.80159       23.77360       -0.834
       18.73277       23.92088       24.71870        0.417
       18.61392       22.88007       23.62578        0.417
       15.45099       27.35113       25.73657       -0.834
       14.73659       27.94616       25.50898        0.417
       15.63114       27.53407       26.65870        0.417
       10.02450       26.25379        7.64180       -0.834
        9.77770       27.16092        7.46169        0.417
       10.87369       26.31836        8.07876        0.417
        7.63298       22.40488       13.59766       -0.834
        7.27188       21.70962       14.14762        0.417
        8.58168       22.30549       13.67724        0.417
       14.92640        8.35716       22.67087       -0.834
       15.29876        8.01340       21.85884        0.417
       14.53810        9.19556       22.42078        0.417
       12.70713       26.67914       24.19999       -0.834
       11.98594       26.15665       23.84912        0.417
       12.47759       26.81867       25.11873        0.417
       19.56939       27.93288       11.36188       -0.834
       19.63254       28.83349       11.67993        0.417
       20.47647       27.63088       11.31467        0.417
       28.93574       17.48729       11.69834       -0.834
       28.64008       16.58463       11.81676        0.417
       28.76340       17.67725       10.77614        0.417
        6.06382       18.15809       16.74555       -0.834
        6.10656       18.10555       17.70035        0.417
        5.30484       18.71415       16.56954        0.417
       28.94100       21.99852       10.94374       -0.834
       29.66472       21.53093       11.36067        0.417
       29.29250       22.28095       10.09940        0.417
        9.00611       20.40788       18.05662       -0.834
        9.62691       20.74696       18.70150        0.417
        8.97594       19.46603       18.22467        0.417
       30.62620       12.44722       16.01778       -0.834
       30.36688       13.33833       15.78341        0.417
       31.39463       12.27033       15.47514        0.417
       16.72635       11.89146       28.00079       -0.834
       17.58904       12.26962       28.17108        0.417
       16.17443       12.64202       27.78108        0.417
       18.97380        7.56668       14.17278       -0.834
       19.01926        8.51739       14.27427        0.417
       18.80449        7.23886       15.05601        0.417
       28.25066       17.97237        8.79981       -0.834
       28.09540       18.88801        8.56801        0.417
       28.45395       17.54529        7.96764        0.417
       14.74305       12.02899       11.66277       -0.834
       14.09896       11.79897       10.99309        0.417
       14.24207       12.50753       12.32326        0.417
       28.58266       12.17567       10.47475       -0.834
       27.69220       12.20686       10.12500        0.417
       28.57916       11.42917       11.07388        0.417
       10.67389       24.54736       26.21693       -0.834
        9.74498       24.68219       26.40449        0.417
       11.11989       25.24174       26.70187        0.417
       22.73246       10.05650       19.86264       -0.834
       22.16497        9.35451       19.54422        0.417
       23.46177       10.07524       19.24296        0.417
       21.11940        3.33333       16.56093       -0.834
       21.55145        4.18391       16.63891        0.417
       20.61344        3.24621       17.36879        0.417
       16.28816        6.06887       11.31803       -0.834
       16.47835        5.82243       10.41286        0.417
       16.76407        5.42802       11.84629        0.417
       23.58997       16.79542       20.03230       -0.834
       24.05571       16.54367       20.82975        0.417
       22.66749       16.63758       20.23318        0.417
       17.85488       12.33227        6.76062       -0.834
       18.61795       11.82496        6.48388        0.417
       17.12509       11.71494        6.71009        0.417
       19.36061       27.72653        8.33565       -0.834
       19.20931       27.89790        9.26515        0.417
       20.00753       28.38134        8.07308        0.417
        4.78760       16.33285       21.28891       -0.834
        4.17516       15.88953       20.70188        0.417
        5.39335       15.64588       21.56705        0.417
       14.62180        5.96325       26.30909       -0.834
       14.51354        5.59458       27.18578        0.417
       13.86237        5.64645       25.82006        0.417
       28.04533       11.09270       14.90878       -0.834
       27.84086       10.35026       15.47729        0.417
       28.79871       11.51255       15.32397        0.417
        7.07918       24.17985        7.90533       -0.834
        7.92118       24.60745        7.74905        0.417
        6.68062       24.68616        8.61316        0.417
       12.04142       12.08447        3.08157       -0.834
       12.21290       13.02268        3.00041        0.417
       11.10702       11.99421        2.89441        0.417
       12.32552        5.98399       15.48716       -0.834
       11.86276        5.15771       15.62625        0.417