%Nproc=32
%Mem=120Gb
%chk=temp.chk
#p cam-b3lyp/6-31+G(d,p) nosymm charge Freq 

Calculation for S0 with freq for abs spect

0  1
 C         15.67001       17.52951       16.07990
 C         17.29263       15.73382       15.50664
 C         17.69386       15.59301       16.75284
 C         17.02629       16.30618       17.76575
 N         16.02668       17.20797       17.42578
 H         17.67125       15.12497       14.63812
 H         18.45954       14.96849       17.03646
 O         17.17321       16.07324       18.97937
 O         14.84122       18.33227       15.79511
 N         16.36929       16.69331       15.18925
 H         15.95504       16.77448       14.32139
 H         15.50575       17.72944       18.15479
 O         15.22388       17.39878       20.23999
 H         15.31707       18.24877       19.80980
 H         14.52011       16.96259       19.75969
 O         19.77826       18.67234       13.13592
 H         20.15130       18.44359       13.98724
 H         20.03212       19.58522       13.00014
 O         20.77523       18.15239       15.62064
 H         21.24080       18.30603       16.44275
 H         20.22594       17.38814       15.79511
 O         11.29185       17.29536       16.42979
 H         10.49722       17.54043       16.90386
 H         11.95083       17.92373       16.72495
 O         16.80158       19.16784       13.22230
 H         17.71880       18.94017       13.07031
 H         16.43566       19.28766       12.34596
 O         14.16221       16.51963       11.71414
 H         13.35525       16.96931       11.96482
 H         14.75762       16.66769       12.44885
 O         17.67740       20.30874       18.14208
 H         17.68546       20.73859       17.28686
 H         18.51829       19.85395       18.19002
 O         13.43878       16.25837       18.71934
 H         13.15362       16.62215       17.88114
 H         13.70365       15.36172       18.51415
 O         15.24235       14.45179       21.09569
 H         15.54995       14.79839       20.25814
 H         14.31152       14.67362       21.11990
 O         13.80492       13.49599       18.35505
 H         13.57895       12.72643       17.83261
 H         13.55544       13.26100       19.24879
 O         19.35408       14.52657       13.13616
 H         19.65637       13.66011       12.86396
 H         20.12293       15.08913       13.04320
 O         17.06066       20.81356       15.49570
 H         16.21209       21.25193       15.43252
 H         17.08257       20.22337       14.74243
 O         14.15160       13.42313       15.27957
 H         14.39954       14.18940       14.76228
 H         13.27941       13.63155       15.61434
 O         13.22879       19.04895       17.06783
 H         13.94454       19.25223       17.67001
 H         13.25401       19.75221       16.41897
 O         17.79160       12.93443       16.17275
 H         17.04957       13.06283       16.76362
 H         18.53980       12.79641       16.75359
 O         17.31350       16.09744       12.24736
 H         17.92048       15.80705       12.92815
 H         17.50693       15.53483       11.49750
 O         18.00845       16.98388       20.74733
 H         17.17111       16.75077       20.34639
 H         17.77762       17.28992       21.62442
 O         15.13826       19.66426       18.88697
 H         15.99531       19.99780       18.62156
 H         14.74899       20.37791       19.39234
 O         17.53173       11.49895       13.98712
 H         18.41662       11.53121       13.62358
 H         17.57817       12.03395       14.77949
 
       18.37370       14.51458        4.59463       -0.834
       17.78330       14.25781        5.30296        0.417
       18.78704       15.31957        4.90667        0.417
       22.94668       12.92519        8.57166       -0.834
       22.30117       13.62892        8.50605        0.417
       22.50178       12.23676        9.06599        0.417
       21.14667       24.12751       26.31922       -0.834
       21.03063       25.04100       26.05788        0.417
       21.10327       24.14405       27.27529        0.417
       23.24211       21.36529       17.91349       -0.834
       22.42972       21.59129       18.36646        0.417
       23.91276       21.89467       18.34501        0.417
       11.96300        6.56541       12.45752       -0.834
       12.66865        6.64498       13.09936        0.417
       11.21916        6.23132       12.95882        0.417
       14.52683       17.00105        5.21890       -0.834
       13.72289       17.35302        5.60103        0.417
       14.61079       16.12684        5.59960        0.417
       14.23950        6.37849       21.77503       -0.834
       14.27100        5.42965       21.65275        0.417
       14.90041        6.55629       22.44422        0.417
       15.75217       18.35644       26.51853       -0.834
       16.12591       19.05409       25.98017        0.417
       15.04914       18.78232       27.00905        0.417
       10.84582        6.82103       20.96174       -0.834
       10.31002        6.92297       21.74836        0.417
       11.72968        6.66097       21.29250        0.417
       24.50741       11.45763       17.88826       -0.834
       25.36926       11.16871       17.58829        0.417
       24.63737       12.36934       18.14929        0.417
        9.07420        5.20462       16.73857       -0.834
        8.62219        4.40903       17.01954        0.417
        9.75639        5.33815       17.39661        0.417
       14.71229       21.08388        4.67565       -0.834
       13.78405       21.18986        4.46736        0.417
       15.17092       21.41991        3.90560        0.417
       21.20442       22.47471       22.21877       -0.834
       22.10773       22.67484       22.46412        0.417
       20.72237       23.28181       22.39889        0.417
       20.65525       21.24427       12.63862       -0.834
       21.15422       21.57431       13.38584        0.417
       21.12534       21.57271       11.87222        0.417
       14.21889       28.43706       17.54233       -0.834
       14.16552       28.96437       18.33940        0.417
       15.15335       28.40600       17.33726        0.417
        3.71751       15.01632       10.41920       -0.834
        3.45620       15.88418       10.11135        0.417
        3.62105       15.06004       11.37052        0.417
        9.71249       14.29509       21.49596       -0.834
        8.93486       14.20723       22.04713        0.417
        9.95305       13.39531       21.27514        0.417
       10.70336       18.75265       11.38886       -0.834
       10.81605       17.90407       11.81718        0.417
       10.36334       18.53957       10.51984        0.417
       12.39754       20.91405       11.82811       -0.834
       13.11632       20.86763       11.19768        0.417
       11.99429       20.04651       11.79660        0.417
        7.00978       28.11665       16.54946       -0.834
        7.58221       28.09348       15.78264        0.417
        7.32653       27.40593       17.10694        0.417
       12.57478       19.45413        2.68657       -0.834
       12.41848       18.63533        2.21607        0.417
       12.43891       20.13766        2.03041        0.417
       15.36994        1.57505       14.14783       -0.834
       15.03575        2.29123       14.68786        0.417
       14.68855        0.90415       14.19053        0.417
       30.16018       15.96121       13.94047       -0.834
       30.18175       16.90073       13.75861        0.417
       30.31235       15.54864       13.09026        0.417
       25.95794       21.30024       13.84865       -0.834
       26.50101       20.52211       13.97444        0.417
       26.03784       21.78412       14.67066        0.417
       27.92142       24.22583       19.30659       -0.834
       27.29886       23.50056       19.25529        0.417
       27.95664       24.57531       18.41616        0.417
        5.44135        9.67060       20.56414       -0.834
        4.99716        9.65754       21.41194        0.417
        6.08781       10.37214       20.64270        0.417
       14.47662        4.89095       14.82676       -0.834
       13.65748        4.41271       14.69823        0.417
       14.45352        5.16441       15.74377        0.417
       18.53372       18.56342       23.32800       -0.834
       19.45906       18.76586       23.19018        0.417
       18.50276       17.60836       23.38403        0.417
       23.81318       18.62591       20.35071       -0.834
       23.16150       18.21461       19.78292        0.417
       23.78872       18.11036       21.15683        0.417
        8.53919       18.74320        9.19437       -0.834
        8.31236       17.82564        9.34559        0.417
        8.67784       18.80351        8.24919        0.417
       21.57771       31.10525       19.19764       -0.834
       20.90043       31.35441       18.56880        0.417
       21.79899       30.20297       18.96711        0.417
       15.48726       15.82826       25.08487       -0.834
       15.36756       16.55914       25.69127        0.417
       15.22227       16.17679       24.23367        0.417
        9.10279       26.14701        7.16882       -0.834
        9.23008       27.08848        7.28573        0.417
        9.71164       25.74384        7.78768        0.417
       19.71129        4.10961       17.42981       -0.834
       19.52738        3.46361       16.74784        0.417
       20.35981        4.69441       17.03781        0.417
       25.80580       15.76813       22.54878       -0.834
       25.04383       16.28437       22.28585        0.417
       25.59842       14.87578       22.27139        0.417
       15.66871       27.29766       26.75183       -0.834
       16.20522       28.09035       26.75719        0.417
       14.82705       27.57993       26.39384        0.417
        9.77793       20.24145       26.44582       -0.834
       10.39069       19.51408       26.55396        0.417
        9.38597       20.09897       25.58425        0.417
       26.99094       22.88860       24.82842       -0.834
       26.57239       22.21907       24.28733        0.417
       27.92879       22.72274       24.73273        0.417
       23.65925       23.62885       25.62378       -0.834
       24.08110       23.10286       26.30320        0.417
       22.73716       23.65598       25.87920        0.417
       14.00843       22.73445       23.90050       -0.834
       13.84260       23.38224       24.58540        0.417
       13.56503       23.08369       23.12742        0.417
       18.11763       23.04217       20.50698       -0.834
       18.83443       22.99944       21.13990        0.417
       17.65397       22.21151       20.61306        0.417
       20.70213       29.50228       13.71972       -0.834
       21.21039       29.08850       13.02208        0.417
       21.35147       29.97088       14.24413        0.417
       26.61576        5.30103       16.54695       -0.834
       27.39283        4.89221       16.92809        0.417
       26.76008        5.25604       15.60176        0.417
       26.89447       16.33198        6.25406       -0.834
       27.33262       16.87250        6.91140        0.417
       26.21777       16.90120        5.88760        0.417
       17.25705       24.02073        4.74213       -0.834
       17.65007       23.47595        5.42403        0.417
       17.73105       24.85064        4.79507        0.417
       12.17178        7.72959       16.96103       -0.834
       13.05616        8.05530       17.12842        0.417
       12.01155        7.93300       16.03951        0.417
       17.14199       10.80141       25.52486       -0.834
       16.64863       10.41952       26.25079        0.417
       17.77844       11.37974       25.94522        0.417
       17.24052       29.03034       10.38151       -0.834
       16.52606       28.72863        9.82049        0.417
       17.81369       28.26891       10.47052        0.417
        3.60383       15.25455       22.39075       -0.834
        3.77122       15.62126       21.52257        0.417
        3.96293       15.90158       22.99789        0.417
       22.03532       21.34977       29.64082       -0.834
       22.41000       21.11707       28.79130        0.417
       22.30433       22.25760       29.78121        0.417
        9.47213       13.91812       29.87823       -0.834
       10.14450       14.48938       29.50701        0.417
        9.44202       13.16666       29.28609        0.417
        4.40188       18.25728       13.84008       -0.834
        3.90754       17.43768       13.82965        0.417
        5.27647       18.00626       14.13725        0.417
        3.49434        9.29792       18.48123       -0.834
        4.05750        9.57524       19.20385        0.417
        4.07107        8.79353       17.90745        0.417
        5.09280        7.59240       17.23556       -0.834
        5.35206        6.72324       16.92965        0.417
        5.59912        7.72570       18.03687        0.417
       10.09457        3.04551       19.02246       -0.834
        9.99483        2.53850       18.21672        0.417
       10.47517        3.87633       18.73765        0.417
       14.70940        4.74417       17.56125       -0.834
       14.08417        4.06175       17.80544        0.417
       15.53922        4.45677       17.94207        0.417
       26.08138        9.97024       23.82742       -0.834
       25.36884        9.99937       23.18893        0.417
       26.67141        9.29240       23.49782        0.417
       16.32778        6.37512        6.87717       -0.834
       16.76711        6.59733        7.69805        0.417
       15.40391        6.56499        7.04039        0.417
        3.72454       15.91873       19.89522       -0.834
        4.03998       15.77090       19.00366        0.417
        3.27834       16.76460       19.85475        0.417
       24.44021       13.06592        6.16066       -0.834
       24.93708       12.27368        6.36487        0.417
       23.70499       13.05271        6.77345        0.417
       10.43668       13.43202       18.28089       -0.834
       10.74630       12.99617       19.07486        0.417
       11.05889       14.14578       18.14075        0.417
       29.03670       21.49600       21.18444       -0.834
       29.34767       20.63239       20.91294        0.417
       28.08619       21.40069       21.24502        0.417
        2.55559       15.65937       14.33504       -0.834
        3.15496       15.01262       13.96261        0.417
        1.69582       15.41499       13.99253        0.417
       28.72985       24.10490       16.24780       -0.834
       28.38547       24.98967       16.36952        0.417
       28.00294       23.52955       16.48616        0.417
        8.23984        9.00801        5.70128       -0.834
        8.19656        9.93344        5.94199        0.417
        8.97058        8.66088        6.21290        0.417
       28.04778       15.28277        9.72239       -0.834
       27.60332       14.44220        9.83250        0.417
       27.34452       15.90252        9.52857        0.417
       23.44978       18.41413       28.37764       -0.834
       23.55505       18.65202       29.29882        0.417
       22.84433       17.67283       28.38889        0.417
       12.82750       23.92475       21.65557       -0.834
       12.87991       24.60139       20.98056        0.417
       12.15330       23.32289       21.34022        0.417
       20.30092       23.94413        6.24268       -0.834
       19.84249       24.49583        6.87648        0.417
       20.60089       24.55269        5.56748        0.417
       27.20573        8.48874        9.80635       -0.834
       27.42912        9.40792        9.65994        0.417
       27.17718        8.39747       10.75876        0.417
       13.99778       24.55650       26.36070       -0.834
       13.14500       24.38169       26.75874        0.417
       14.44061       25.13145       26.98485        0.417
        6.69662       20.52560       14.71125       -0.834
        6.32620       19.91983       14.06933        0.417
        7.43652       20.93126       14.25933        0.417
       21.95829       12.44540       25.64967       -0.834
       21.36294       12.82813       25.00522        0.417
       22.67163       12.07709       25.12840        0.417
       27.06084       12.53738       24.19732       -0.834
       26.98841       11.63322       23.89157        0.417
       26.43298       12.59827       24.91727        0.417
        5.59062       23.10650       13.97446       -0.834
        5.79860       22.34238       14.51213        0.417
        6.10759       22.98723       13.17775        0.417
       19.56642       10.07885       27.17471       -0.834
       19.09043        9.96665       27.99755        0.417
       19.89964       10.97546       27.21055        0.417
       16.27645       19.04834        5.30247       -0.834
       15.77643       19.81313        5.01732        0.417
       15.64211       18.33153        5.29789        0.417
       25.68838       25.97122        9.46496       -0.834
       26.42226       25.36212        9.38337        0.417
       25.58692       26.34345        8.58895        0.417
       12.00562        8.24511       10.33795       -0.834
       12.89954        8.24064        9.99572        0.417
       12.05723        7.74186       11.15054        0.417
       10.64251       29.91478       14.73744       -0.834
       11.14660       30.44752       14.12237        0.417
       11.22079       29.18237       14.95050        0.417
       11.69758       14.95938        4.44759       -0.834
       12.14666       14.88945        5.29001        0.417
       10.83507       14.57437        4.60274        0.417
       18.55729       27.82663       13.34648       -0.834
       18.81044       27.36012       14.14305        0.417
       19.18334       28.54779       13.28148        0.417
       13.05323       11.52437       13.40253       -0.834
       13.48383       11.40464       12.55608        0.417
       13.67224       12.04410       13.91531        0.417
       15.55181       10.61128       23.11013       -0.834
       15.95269        9.80887       22.77599        0.417
       16.06587       10.83081       23.88716        0.417
       20.97729        8.71001       15.64789       -0.834
       21.32737        9.42814       16.17511        0.417
       21.56678        8.65495       14.89575        0.417
       17.31089        7.01875        9.15031       -0.834
       18.16665        6.59324        9.09690        0.417
       17.24971        7.32186       10.05619        0.417
       22.25176        6.81156       18.76584       -0.834
       21.88464        6.36903       18.00059        0.417
       21.49536        6.99421       19.32327        0.417
       16.87289       11.49941       29.48097       -0.834
       16.85242       12.43981       29.30362        0.417
       16.01667       11.30876       29.86410        0.417
        3.62006       18.36289       10.37627       -0.834
        2.69367       18.12782       10.32373        0.417
        3.62014       19.27477       10.66733        0.417
       14.02246       25.55882       14.47500       -0.834
       14.90984       25.24024       14.64019        0.417
       13.51923       25.27363       15.23767        0.417
       22.09927       28.45519       18.54566       -0.834
       22.72929       27.81310       18.87280        0.417
       21.28138       27.96573       18.45791        0.417
        8.65613       10.65124       19.14035       -0.834
        9.55424       10.57752       19.46314        0.417
        8.20623       11.17812       19.80082        0.417
       26.99132       11.11755        8.85087       -0.834
       27.76468       11.43709        8.38608        0.417
       26.74936       11.83538        9.43602        0.417
       13.15416       20.10793       27.84813       -0.834
       13.69469       20.80394       27.47446        0.417
       12.97309       20.39841       28.74204        0.417
       25.10694        9.92233       26.54749       -0.834
       24.34205        9.46368       26.19990        0.417
       25.38436       10.49961       25.83614        0.417
       12.48730       15.21074       21.18486       -0.834
       12.39701       15.74319       20.39456        0.417
       11.59335       14.94193       21.39656        0.417
        7.94033       11.69914        6.28112       -0.834
        8.64931       12.17483        5.84834        0.417
        8.04210       11.90914        7.20944        0.417
       20.33348       12.99114       18.37257       -0.834
       19.64176       13.22445       18.99170        0.417
       20.81860       13.80506       18.23683        0.417
       22.74764       29.73567       15.90608       -0.834
       23.63209       30.07327       16.04751        0.417
       22.44530       29.48202       16.77814        0.417
        5.77445       12.03769       11.33645       -0.834
        5.61981       11.23004       10.84654        0.417
        6.13094       11.74508       12.17522        0.417
       26.50344       19.63543        9.69505       -0.834
       26.31924       18.70041        9.60536        0.417
       26.54687       19.78191       10.63998        0.417
       15.28091       10.87421       16.12890       -0.834
       14.77220       11.64534       15.87833        0.417
       14.70626       10.38985       16.72170        0.417
        4.25701        9.07224       15.19189       -0.834
        4.62535        8.38446       15.74643        0.417
        4.62593        9.88417       15.53960        0.417
        7.05560       19.14350       17.02543       -0.834
        6.36998       19.35549       17.65884        0.417
        6.92593       19.76940       16.31292        0.417
       16.72805       27.19517       16.93013       -0.834
       17.28920       26.70126       16.33231        0.417
       17.20565       28.00911       17.09024        0.417
        7.05708       25.50080       21.40421       -0.834
        7.79428       25.99937       21.05181        0.417
        6.71416       25.01632       20.65326        0.417
       12.94274       14.63771       24.15944       -0.834
       13.76165       15.00942       24.48723        0.417
       13.04408       14.63582       23.20762        0.417
       29.67114       18.80078       20.66189       -0.834
       29.00799       18.48187       21.27407        0.417
       30.06069       18.00707       20.29514        0.417
       21.76104       15.27666       17.43151       -0.834
       22.53390       15.76407       17.71672        0.417
       21.70314       15.44728       16.49142        0.417
       18.72951       13.11823       26.63599       -0.834
       18.22072       13.84052       27.00431        0.417
       19.53132       13.52955       26.31328        0.417
        9.70637       23.86560       23.37657       -0.834
       10.12382       23.60985       24.19910        0.417
        9.10981       23.14446       23.17583        0.417
       18.34171       29.36977       19.89778       -0.834
       18.52845       28.80712       19.14626        0.417
       18.16033       28.76121       20.61401        0.417
       17.24287       10.22173       10.15456       -0.834
       17.50081        9.43520       10.63525        0.417
       16.45604       10.53035       10.60389        0.417
       15.37916       18.65270        1.46651       -0.834
       14.60114       19.03021        1.87689        0.417
       15.59490       19.25905        0.75797        0.417
       12.94158        2.11359       17.05822       -0.834
       12.38428        1.33561       17.03816        0.417
       12.75827        2.56148       16.23238        0.417
       30.13919       22.95547       13.61968       -0.834
       31.01450       23.28830       13.81791        0.417
       29.58830       23.29362       14.32566        0.417
       14.67233       21.90884       26.54526       -0.834
       14.55871       21.67125       25.62500        0.417
       14.38913       22.82188       26.59412        0.417
       18.09514        7.45810       28.36073       -0.834
       17.68827        8.07315       27.75048        0.417
       17.52688        7.47282       29.13086        0.417
       15.26284       25.53518       24.09672       -0.834
       14.75799       26.20844       23.64055        0.417
       14.69634       25.25674       24.81629        0.417
       23.12101        7.54020        5.44655       -0.834
       22.40570        8.15370        5.61437        0.417
       23.20351        7.03987        6.25839        0.417
       17.56274       20.25821       20.90795       -0.834
       17.77775       20.28492       19.97560        0.417
       17.79499       19.37112       21.18248        0.417
       18.30595       15.91317       24.32953       -0.834
       18.16275       15.06468       23.91023        0.417
       17.44971       16.15345       24.68358        0.417
       21.87566       16.24342       28.30688       -0.834
       22.71924       15.94765       27.96465        0.417
       21.50794       15.47212       28.73828        0.417
       12.99915       10.95269       10.58441       -0.834
       12.24508       10.36709       10.51589        0.417
       13.74941       10.40624       10.35045        0.417
        8.20097       18.03731       23.82533       -0.834
        8.15861       17.20446       23.35544        0.417
        8.47056       18.67327       23.16269        0.417
       10.48083       25.02356       11.88069       -0.834
       10.02372       24.18298       11.85409        0.417
       11.13591       24.96261       11.18543        0.417
       11.85996       14.60380       15.76687       -0.834
       11.48356       15.45491       15.99085        0.417
       11.20697       14.19452       15.19915        0.417
       17.79199        9.46949        2.81553       -0.834
       17.83916        8.68563        2.26820        0.417
       17.05580        9.30652        3.40518        0.417
        9.69466       19.13962       19.35095       -0.834
        9.14158       19.81328       19.74657        0.417
       10.04125       18.64648       20.09454        0.417
        5.74301       23.99757       19.34973       -0.834
        5.37865       24.79785       18.97153        0.417
        5.16197       23.30126       19.04348        0.417
       20.91327       17.80422        5.71547       -0.834
       20.71835       17.39242        6.55729        0.417
       20.12393       17.66567        5.19205        0.417
        9.91056       22.35094       11.33471       -0.834
        9.96096       22.29220       10.38065        0.417
       10.30233       21.53510       11.64642        0.417
       22.00526        5.34292       16.14712       -0.834
       22.25877        6.09054       15.60580        0.417
       22.44075        4.59369       15.74065        0.417
       16.07778        9.64135       27.66110       -0.834
       16.53893       10.00704       28.41598        0.417
       15.21313        9.40722       27.99842        0.417
        9.02945       17.60869        4.25923       -0.834
        8.66325       18.38266        3.83133        0.417
        9.63049       17.95959        4.91638        0.417
       23.81775       11.44256       12.51124       -0.834
       23.85929       12.34837       12.81787        0.417
       24.00014       10.91693       13.29014        0.417
        7.63320       15.56236        5.93179       -0.834
        6.69374       15.74530        5.91883        0.417
        8.02239       16.26875        5.41626        0.417
       19.52227       20.03971        1.99145       -0.834
       19.46361       19.08726        1.91641        0.417
       18.82006       20.27641        2.59735        0.417
        6.55529        7.40278       21.75772       -0.834
        6.36677        8.14618       21.18496        0.417
        7.49174        7.47382       21.94277        0.417
       11.19036       10.28867       29.18751       -0.834
       10.66428       10.80063       28.57321        0.417
       10.54847        9.81357       29.71522        0.417
       15.07612       12.56852        7.95188       -0.834
       15.37534       12.77708        8.83687        0.417
       15.46433       11.71435        7.76235        0.417
        4.45654       21.92836       18.16081       -0.834
        4.71077       21.00622       18.19641        0.417
        3.77227       21.96302       17.49238        0.417
       21.11884       21.74929       19.58666       -0.834
       21.07073       21.95361       20.52056        0.417
       20.37194       22.20789       19.20188        0.417
       20.91003       26.94619       25.60238       -0.834
       21.13251       27.15960       24.69619        0.417
       20.02734       27.29669       25.72171        0.417
       14.17495       14.37945       30.77593       -0.834
       13.25694       14.12287       30.86337        0.417
       14.64209       13.55575       30.63615        0.417
        8.61175       17.01944       17.68390       -0.834
        9.11485       17.54155       18.30881        0.417
        7.93526       17.61567       17.36278        0.417
       24.29462       10.42710       21.64988       -0.834
       24.44084        9.84946       20.90075        0.417
       23.34338       10.44849       21.75436        0.417
       26.10103       13.51365        9.86985       -0.834
       25.26607       13.53152        9.40213        0.417
       25.86016       13.58336       10.79362        0.417
        6.71889       18.98248       11.80744       -0.834
        7.02958       18.46333       12.54918        0.417
        7.09090       18.54966       11.03899        0.417