%Nproc=32
%Mem=120Gb
%chk=temp.chk
#p cam-b3lyp/6-31+G(d,p) nosymm charge Freq 

Calculation for S0 with freq for abs spect

0  1
 C         15.67001       17.52951       16.07990
 C         17.29263       15.73382       15.50664
 C         17.69386       15.59301       16.75284
 C         17.02629       16.30618       17.76575
 N         16.02668       17.20797       17.42578
 H         17.67125       15.12497       14.63812
 H         18.45954       14.96849       17.03646
 O         17.17321       16.07324       18.97937
 O         14.84122       18.33227       15.79511
 N         16.36929       16.69331       15.18925
 H         15.95504       16.77448       14.32139
 H         15.50575       17.72944       18.15479
 O         13.68197       19.59563       19.33981
 H         12.74320       19.41022       19.36367
 H         13.83678       19.93746       18.45924
 O         14.54554       14.43400       12.87144
 H         14.17309       13.55224       12.86881
 H         15.25779       14.39175       13.50953
 O         20.44494       17.98275       15.03887
 H         21.12825       18.64703       14.94910
 H         20.91314       17.14913       14.99305
 O         17.45445       16.27851       11.97908
 H         17.29660       15.69825       12.72380
 H         17.82097       17.07297       12.36733
 O         15.51823       14.82283       19.80177
 H         15.70114       13.88927       19.90782
 H         14.71606       14.96870       20.30324
 O         16.08419       19.29681       20.73029
 H         16.46395       18.42804       20.59897
 H         15.32316       19.31626       20.15003
 O         20.93039       13.60287       17.31924
 H         20.07697       13.92574       17.03000
 H         21.33842       14.35470       17.74876
 O         12.75842       19.36543       15.60981
 H         11.83613       19.19609       15.80197
 H         12.78682       19.49103       14.66131
 O         17.32993       22.05281       16.40196
 H         17.07810       21.12936       16.39522
 H         17.12849       22.35002       17.28928
 O         18.73713       18.51765       13.04678
 H         18.87973       19.39937       12.70258
 H         19.39122       18.42155       13.73900
 O         18.33974       11.34895       18.21048
 H         17.83637       11.14288       18.99812
 H         17.71200       11.77984       17.63038
 O         16.93389       13.84705       13.92184
 H         17.51095       13.91809       14.68223
 H         17.30605       13.13319       13.40401
 O         19.86664       19.53086       17.89018
 H         20.03104       18.67934       18.29529
 H         19.99000       19.37869       16.95324
 O         16.00895       12.17815       16.83549
 H         15.26443       12.37391       17.40436
 H         15.61985       11.76537       16.06449
 O         20.21449       17.28496       19.66602
 H         20.42135       17.98073       20.29000
 H         19.28563       17.40707       19.46967
 O         17.25372       16.99009       20.00966
 H         16.58002       16.35425       19.76867
 H         17.80656       16.52705       20.63910
 O         16.83730       20.74376       13.80989
 H         16.61536       19.98731       13.26696
 H         16.96289       20.38119       14.68682
 
        4.99397        9.18587       18.35398       -0.834
        4.74777        9.75748       17.62674        0.417
        5.45081        9.76132       18.96749        0.417
       12.68674       29.85601       14.52222       -0.834
       12.10563       29.73238       13.77172        0.417
       13.10836       29.00507       14.64202        0.417
       19.30967       10.82201        5.62242       -0.834
       18.37269       10.79337        5.81605        0.417
       19.36003       10.75093        4.66920        0.417
        7.73691       18.53364       17.92986       -0.834
        7.56795       17.82857       17.30490        0.417
        7.18228       19.25521       17.63330        0.417
       18.74290       25.08475        6.29804       -0.834
       18.78439       24.15743        6.53169        0.417
       19.62530       25.29494        5.99239        0.417
       21.90170        6.74715       21.98560       -0.834
       22.54473        6.11789       21.65883        0.417
       22.42517        7.48609       22.29572        0.417
       17.71555       22.12440        6.33656       -0.834
       17.10432       22.82441        6.10718        0.417
       17.82657       21.62758        5.52596        0.417
       20.13815        3.51034       18.28527       -0.834
       20.38931        2.58982       18.20908        0.417
       19.53597        3.65598       17.55561        0.417
       18.49465       25.61308       23.57903       -0.834
       18.80968       26.12702       24.32257        0.417
       17.83826       25.02592       23.95404        0.417
        9.38943       27.05298       21.93307       -0.834
        8.71993       26.39228       21.75564        0.417
        8.95362       27.88802       21.76280        0.417
        6.73621       12.86384       22.75080       -0.834
        6.02883       12.37626       22.32877        0.417
        7.34714       12.19017       23.04942        0.417
       19.22416        6.42275       14.73506       -0.834
       18.47679        5.83069       14.65055        0.417
       19.19056        6.72353       15.64315        0.417
       14.02406       14.84832        1.85592       -0.834
       14.69023       14.44111        1.30218        0.417
       14.22708       15.78330        1.82744        0.417
        8.30494       22.00998        6.77251       -0.834
        8.17844       22.25413        7.68936        0.417
        8.30345       22.84247        6.30008        0.417
       14.70782        8.62518        6.93596       -0.834
       14.36204        9.14494        6.21034        0.417
       14.75494        7.73342        6.59132        0.417
       10.93081       16.32378       19.47687       -0.834
       10.23913       16.22642       20.13135        0.417
       11.20627       17.23733       19.55289        0.417
       12.94209       22.30734        8.63885       -0.834
       12.27780       22.01959        8.01263        0.417
       13.63264       22.68976        8.09744        0.417
       23.43536       17.86894       21.11197       -0.834
       23.35336       18.82132       21.06227        0.417
       22.64093       17.58286       21.56283        0.417
       10.80292       10.10080       27.06067       -0.834
       10.50760       10.15616       26.15185        0.417
       11.73926        9.91230       26.99769        0.417
       25.22867       10.84468       10.66994       -0.834
       25.77649       10.06153       10.72281        0.417
       24.42023       10.60300       11.12188        0.417
       14.10015       11.03571       15.17506       -0.834
       13.52525       11.76169       15.41728        0.417
       13.82550       10.79722       14.28967        0.417
       26.91340       12.83819       19.05667       -0.834
       26.04056       12.94105       19.43588        0.417
       26.96216       11.91357       18.81392        0.417
        4.58229        9.20579       22.60024       -0.834
        5.37406        8.80639       22.23994        0.417
        3.98709        9.27444       21.85374        0.417
       28.60547       23.31378       15.37855       -0.834
       28.74686       22.36708       15.37953        0.417
       29.47929       23.68682       15.26233        0.417
       11.93706       17.02796       25.27527       -0.834
       12.19082       16.10510       25.26218        0.417
       11.16769       17.07338       24.70762        0.417
        4.44837       17.45414       18.19013       -0.834
        3.81746       17.34289       17.47893        0.417
        4.68991       16.56181       18.43844        0.417
        6.49013       23.19305       16.72940       -0.834
        6.45524       24.10026       17.03269        0.417
        6.07986       23.21311       15.86482        0.417
       21.06404        9.47745       21.05219       -0.834
       20.47760        9.69250       20.32688        0.417
       20.49479        9.45075       21.82126        0.417
       11.57784       31.27455       16.51699       -0.834
       11.97921       30.50841       16.10691        0.417
       10.71708       31.34442       16.10415        0.417
       16.36332       17.49682        4.37433       -0.834
       16.26140       17.15596        3.48570        0.417
       17.28128       17.33288        4.59044        0.417
       18.41982        2.08392       20.47380       -0.834
       17.83015        2.73324       20.09053        0.417
       19.29743        2.42222       20.29607        0.417
       26.58308       10.58689       25.03143       -0.834
       26.90151        9.68421       25.03286        0.417
       25.67452       10.52133       25.32546        0.417
       14.32873       25.62615       23.46530       -0.834
       14.40560       25.13560       22.64697        0.417
       15.16535       26.08335       23.55054        0.417
        7.15298        7.52850       17.18128       -0.834
        6.45431        8.06850       17.55071        0.417
        6.73819        7.06357       16.45463        0.417
       18.93638       17.75578        2.07022       -0.834
       19.53255       17.33937        1.44779        0.417
       19.14852       18.68777        2.01895        0.417
       19.94917       14.44377       27.14506       -0.834
       20.36919       15.25957       26.87251        0.417
       19.15558       14.39278       26.61228        0.417
       14.86976       20.74201       10.53882       -0.834
       14.23574       21.18380        9.97396        0.417
       15.67177       20.70650       10.01751        0.417
        9.51195       12.95859        8.33743       -0.834
        9.22531       12.83900        7.43202        0.417
       10.38850       13.33604        8.26379        0.417
       17.01122        3.08421       16.42800       -0.834
       17.55369        2.37397       16.08518        0.417
       16.91540        3.68942       15.69263        0.417
       10.76540       24.92048       27.36435       -0.834
       11.47979       25.21832       26.80117        0.417
        9.98082       25.00732       26.82293        0.417
        7.63135       15.34790       19.45471       -0.834
        7.36704       16.26786       19.46135        0.417
        6.99677       14.91178       20.02333        0.417
       19.80489       14.25413       23.44261       -0.834
       20.32720       13.50663       23.73356        0.417
       18.94616       14.11712       23.84266        0.417
       26.74614       14.05629       14.42400       -0.834
       26.70571       15.00210       14.56561        0.417
       26.42378       13.93332       13.53114        0.417
        6.80731       23.16189       12.15456       -0.834
        6.26949       23.03896       12.93678        0.417
        6.51451       22.47810       11.55212        0.417
       18.05377       24.44428        9.82878       -0.834
       18.85265       24.95313        9.69059        0.417
       17.70828       24.76182       10.66306        0.417
        9.31485        8.99605       19.43203       -0.834
        9.63402        9.13542       18.54044        0.417
        9.36840        8.04906       19.56081        0.417
       29.43811        8.75449       13.07980       -0.834
       28.68504        8.32883       13.48960        0.417
       29.87975        9.20554       13.79934        0.417
       20.79395       20.14491        4.04706       -0.834
       19.84530       20.08074        4.15742        0.417
       21.15226       19.88987        4.89724        0.417
       12.54605        8.21410       21.23945       -0.834
       12.88269        7.83261       20.42866        0.417
       12.06961        8.99497       20.95754        0.417
       14.10529       21.98290       26.46549       -0.834
       13.44813       22.10626       25.78054        0.417
       14.22396       21.03444       26.51619        0.417
       23.28393       20.08963       23.53720       -0.834
       23.93829       20.43148       24.14645        0.417
       23.49518       20.50417       22.70068        0.417
        9.03231       16.51162       24.40746       -0.834
        8.27673       17.09853       24.37796        0.417
        9.03750       16.17187       25.30232        0.417
       19.29022        5.36671        9.23419       -0.834
       18.93685        6.06402        8.68181        0.417
       18.52259        4.98688        9.66163        0.417
       23.35653       11.59929        3.79914       -0.834
       24.20427       11.34502        3.43454        0.417
       23.12948       10.88758        4.39759        0.417
       14.02448       12.22397       19.02163       -0.834
       13.32801       12.86704       19.15436        0.417
       14.66387       12.41776       19.70709        0.417
       21.99921       23.54558       10.29494       -0.834
       22.20734       23.79616       11.19501        0.417
       21.28160       24.12711       10.04376        0.417
       11.05546       22.42768       17.53933       -0.834
       10.22768       22.74687       17.89865        0.417
       11.29057       23.07074       16.87042        0.417
        8.08962       16.25645       10.07594       -0.834
        7.56794       16.36557       10.87103        0.417
        7.64145       15.56576        9.58775        0.417
       21.96673       28.26036       20.24524       -0.834
       22.06642       27.31628       20.36769        0.417
       21.09196       28.45494       20.58162        0.417
       12.77901        5.91840       19.45639       -0.834
       13.64639        5.51971       19.52649        0.417
       12.45705        5.64321       18.59800        0.417
       23.42737       12.50938       19.98492       -0.834
       22.49206       12.71146       19.96057        0.417
       23.58620       12.01114       19.18320        0.417
       26.71872       21.78746        9.57842       -0.834
       26.98690       21.05410        9.02480        0.417
       25.82379       21.57404        9.84256        0.417
        3.74140       11.03149       15.96425       -0.834
        3.85982       11.96267       16.15163        0.417
        2.84470       10.84311       16.24115        0.417
       23.45183       19.08766        7.54438       -0.834
       23.42784       18.57644        6.73548        0.417
       23.86299       18.50598        8.18378        0.417
       10.28685       15.04346       28.70887       -0.834
        9.95875       14.26814       28.25339        0.417
       10.27848       14.79954       29.63443        0.417
       16.42824       16.32137       29.61376       -0.834
       16.96919       17.03687       29.27957        0.417
       16.27376       15.76167       28.85277        0.417
       12.44455        9.61682       13.21983       -0.834
       12.46151        9.03996       13.98350        0.417
       11.74794        9.26272       12.66703        0.417
       11.03860       10.12893        6.93877       -0.834
       11.88410       10.18450        7.38405        0.417
       10.45056       10.66301        7.47281        0.417
       13.19511       19.42516       24.83791       -0.834
       12.71951       18.61868       25.03700        0.417
       13.43757       19.33940       23.91591        0.417
       24.29386       12.15940       24.86128       -0.834
       24.24145       12.68748       24.06466        0.417
       25.23202       12.03837       25.00770        0.417
       17.89337       10.45117       21.41663       -0.834
       18.64876       10.44366       22.00449        0.417
       17.60336        9.53945       21.38689        0.417
       16.39818       25.77660       11.95306       -0.834
       17.03229       25.94603       12.64979        0.417
       15.61537       25.46963       12.41045        0.417
       20.04795       30.09236       15.45727       -0.834
       20.68466       30.05677       16.17111        0.417
       20.43550       29.55913       14.76322        0.417
       27.28079       18.89986        8.51824       -0.834
       26.54804       18.31399        8.70814        0.417
       27.30826       18.94785        7.56264        0.417
       15.38075        2.61458       13.42650       -0.834
       14.46505        2.58704       13.70391        0.417
       15.47869        1.85928       12.84671        0.417
       25.32838       26.78268        9.78320       -0.834
       24.90988       27.14575        9.00264        0.417
       24.69472       26.92939       10.48547        0.417
       15.49469       22.73688        3.52073       -0.834
       15.36034       23.55216        4.00396        0.417
       16.38977       22.47490        3.73622        0.417
       19.59490        8.38873        6.83341       -0.834
       19.70573        9.23314        6.39648        0.417
       20.03578        8.49499        7.67636        0.417
       16.88772        4.88120       13.95680       -0.834
       16.74923        4.05119       13.50057        0.417
       16.47351        5.53601       13.39477        0.417
       18.74301       23.10043       14.53970       -0.834
       18.04265       22.81543       15.12664        0.417
       19.00375       22.30601       14.07371        0.417
       12.35152       18.15971       10.45795       -0.834
       11.47655       17.86888       10.71500        0.417
       12.90575       17.38864       10.57839        0.417
       15.08989       30.68407       22.94465       -0.834
       14.52190       30.72918       22.17551        0.417
       15.40231       29.77942       22.95955        0.417
       20.71855        7.59370        9.86625       -0.834
       20.46611        6.67070        9.84241        0.417
       21.31760        7.65953       10.60993        0.417
       21.56674       17.18634       10.55344       -0.834
       22.04378       17.21610        9.72412        0.417
       21.23416       16.29038       10.60698        0.417
       17.18304       20.51920        3.89357       -0.834
       17.49329       19.68729        4.25122        0.417
       16.86150       20.29950        3.01917        0.417
       13.85523       25.60465       17.01079       -0.834
       14.80884       25.53421       17.05440        0.417
       13.57414       24.79568       16.58326        0.417
       13.80446       18.50907       30.35341       -0.834
       14.58657       18.98164       30.06842        0.417
       13.49786       18.05653       29.56763        0.417
       17.33891       13.45090       30.72435       -0.834
       17.66773       13.00849       29.94180        0.417
       17.30442       14.37587       30.48048        0.417
        6.43289       13.87103        5.01141       -0.834
        7.27634       14.04067        5.43099        0.417
        6.52045       12.99174        4.64341        0.417
        6.60626       10.15399       24.28329       -0.834
        5.85023        9.88450       23.76172        0.417
        7.28743        9.51791       24.06501        0.417
       24.54977       18.74807        3.78626       -0.834
       23.94954       18.03538        4.00542        0.417
       25.01952       18.43683        3.01251        0.417
       15.41817        5.35320       21.07239       -0.834
       15.66066        4.56754       20.58233        0.417
       15.08912        5.02265       21.90827        0.417
       13.26592       10.88159       23.59721       -0.834
       14.13670       11.25204       23.45320        0.417
       12.66317       11.55979       23.29228        0.417
       25.87171       23.66187       15.28793       -0.834
       25.72974       23.28927       16.15813        0.417
       26.80651       23.86635       15.26401        0.417
       25.34876        9.25364       19.71723       -0.834
       24.86097        9.80116       19.10199        0.417
       24.88224        9.35124       20.54734        0.417
       19.32993       13.59751        6.02028       -0.834
       18.79574       12.80349        6.00037        0.417
       20.06306       13.40828        5.43466        0.417
       25.67746       20.59224       15.40579       -0.834
       26.43719       21.02285       15.79773        0.417
       25.01841       20.58969       16.09996        0.417
       11.72357       17.51010       28.52525       -0.834
       11.04827       16.86904       28.74716        0.417
       11.87273       17.38681       27.58782        0.417
       28.70132       11.38979       23.17452       -0.834
       28.06408       11.95181       23.61531        0.417
       28.16981       10.75047       22.70016        0.417
       31.04172       19.06800       22.06197       -0.834
       30.38001       18.39533       21.90109        0.417
       30.58548       19.73591       22.57379        0.417
        5.97393       15.55758       21.83063       -0.834
        6.26186       16.43112       22.09569        0.417
        5.94626       15.05642       22.64569        0.417
        6.24791       15.04019       16.70213       -0.834
        6.67944       14.22548       16.44469        0.417
        6.77761       15.37391       17.42621        0.417
       28.13229       11.66445        8.15155       -0.834
       28.40566       10.74800        8.19192        0.417
       27.17938       11.62723        8.06902        0.417
       15.28342       11.07890       11.55365       -0.834
       15.41439       10.23194       11.12733        0.417
       14.47927       11.42195       11.16390        0.417
       15.45033       29.00675       19.10030       -0.834
       16.27601       29.32951       19.46129        0.417
       15.55756       29.08129       18.15205        0.417
       17.63234       21.88435       28.03638       -0.834
       17.04134       22.56358       28.36135        0.417
       18.07353       21.55533       28.81954        0.417
       11.36335        8.37098        9.84778       -0.834
       10.54348        8.15932       10.29414        0.417
       11.15835        8.28667        8.91660        0.417
       21.16618        6.60588       12.91514       -0.834
       21.54309        7.46440       13.10779        0.417
       20.40999        6.53945       13.49823        0.417
       28.80093       14.68938       22.41552       -0.834
       28.55621       14.67553       21.49024        0.417
       29.74340       14.52211       22.41702        0.417
        7.69400       12.74589       15.79503       -0.834
        8.44422       12.22003       15.51775        0.417
        7.04252       12.61674       15.10574        0.417
       17.20933       19.01835        8.06202       -0.834
       18.04348       18.88981        8.51358        0.417
       17.41363       18.88149        7.13695        0.417
       17.13131       30.07557        8.79208       -0.834
       16.18806       30.23801        8.78076        0.417
       17.23223       29.28431        9.32119        0.417
       16.25576       10.72535       27.73066       -0.834
       16.96322       11.28251       28.05515        0.417
       16.09459       10.10411       28.44082        0.417
       16.26969        2.79518       22.47488       -0.834
       15.60961        2.10472       22.41322        0.417
       16.89229        2.59510       21.77590        0.417
       18.47444       11.94062       28.78745       -0.834
       18.56060       12.38137       27.94214        0.417
       19.34828       11.59386       28.96746        0.417
       21.42157       18.79017       31.10228       -0.834
       21.89392       19.60051       31.29325        0.417
       21.52576       18.66835       30.15860        0.417
       27.38013       24.91835       13.02610       -0.834
       28.04046       24.24885       12.84730        0.417
       26.54702       24.44803       12.99517        0.417
        2.48079       19.62805       16.21789       -0.834
        2.26908       18.69520       16.18301        0.417
        1.83599       19.99809       16.82082        0.417
       13.78149       13.59164        4.25514       -0.834
       13.90128       13.89884        3.35652        0.417
       14.38752       12.85559        4.33993        0.417
       21.91930       29.62716       17.65315       -0.834
       22.58709       30.30132       17.52742        0.417
       21.95316       29.42735       18.58865        0.417
       27.06476       24.41964        8.97165       -0.834
       26.77407       24.97215        9.69723        0.417
       26.96717       23.52485        9.29731        0.417
        9.59518        5.47286        9.29159       -0.834
       10.54928        5.45497        9.21669        0.417
        9.36642        4.61507        9.64949        0.417
       11.01111       18.96616       18.80693       -0.834
       11.04215       19.92272       18.82304        0.417
       10.09089       18.75860       18.64463        0.417
       23.88639       19.03835       18.13562       -0.834
       24.36494       18.82423       18.93647        0.417
       23.80449       18.20354       17.67452        0.417
       25.38628       11.81012        8.17625       -0.834
       25.37095       11.39280        9.03755        0.417
       24.58682       12.33587        8.15004        0.417
       14.13210        5.45853        6.57736       -0.834
       14.62054        5.27781        5.77424        0.417
       13.48610        6.11720        6.32229        0.417
       15.03802       20.62007        1.67682       -0.834
       14.43788       20.42418        2.39633        0.417
       15.32702       21.51737        1.84290        0.417
       21.96306       15.35029       19.01544       -0.834
       22.83802       15.67825       19.22311        0.417
       21.36969       16.02840       19.33842        0.417
       21.30574       17.18907        5.11825       -0.834
       20.65027       16.60047        5.49260        0.417
       21.22716       17.06526        4.17235        0.417
       17.55105       23.59959       20.64823       -0.834
       17.07369       24.41918       20.51920        0.417
       17.10453       22.97010       20.08202        0.417
       12.76060       10.60155        9.21269       -0.834
       12.75709        9.83970        9.79217        0.417
       12.81764       11.35235        9.80370        0.417
       15.07215       24.56102       26.41687       -0.834
       14.46919       23.82054       26.48295        0.417
       14.84944       24.97832       25.58471        0.417
       23.40855       26.93371       11.66001       -0.834
       23.52943       26.04679       11.99913        0.417
       23.11175       27.44111       12.41545        0.417
        3.90016       21.68700       17.49627       -0.834
        3.43990       21.05589       16.94301        0.417
        3.64460       22.54166       17.14916        0.417
       29.26263       24.14388       20.58509       -0.834
       28.43304       23.76567       20.87659        0.417
       29.07115       25.07302       20.45761        0.417
        7.88470       27.41626       12.58818       -0.834
        7.20191       26.78679       12.35624        0.417
        8.59535       27.23723       11.97242        0.417
       18.21248       20.50355       30.54903       -0.834
       17.72631       20.13699       31.28760        0.417
       18.62792       21.29037       30.90198        0.417
       17.60762       21.79511        9.51478       -0.834
       17.69843       22.74643        9.56936        0.417
       17.84393       21.58289        8.61181        0.417
       11.12967       10.86509        3.97727       -0.834
       11.13605       11.82226        3.97966        0.417
       11.87689       10.61875        4.52245        0.417
       19.14570       17.78116       23.81166       -0.834
       18.73478       17.68917       24.67126        0.417
       18.79688       18.60262       23.46558        0.417
       10.93316       25.27908        8.56156       -0.834
       10.99040       24.89790        7.68539        0.417
       11.36995       24.64364        9.12871        0.417
       23.10404        9.36824       24.65543       -0.834
       23.25922       10.29389       24.84339        0.417
       23.36023        9.26318       23.73916        0.417
       19.99032        6.61988       23.72446       -0.834
       19.79831        5.69475       23.87772        0.417
       20.63659        6.61709       23.01838        0.417
       26.46785       26.97442       20.92988       -0.834
       26.07255       26.72960       21.76656        0.417
       27.39962       26.78500       21.04013        0.417
       16.47265       28.37404       23.99395       -0.834
       17.42955       28.35330       23.98200        0.417
       16.24625       28.47149       24.91887        0.417
       14.15893       13.49381       26.11767       -0.834
       13.27920       13.77987       25.87176        0.417
       14.10617       13.33934       27.06085        0.417
        6.42911       18.31438       24.25213       -0.834
        6.08113       17.51704       24.65137        0.417
        5.76763       18.56905       23.60884        0.417
       23.65284       11.97998       27.58500       -0.834
       24.05082       11.12321       27.73922        0.417
       23.77079       12.13418       26.64770        0.417
       24.72509       16.71477       16.41570       -0.834
       23.84528       16.46044       16.13736        0.417
       25.25324       16.66274       15.61910        0.417
       15.29284        8.85375        9.61579       -0.834
       15.11614        8.78221        8.67777        0.417
       16.24572        8.79566        9.68561        0.417
       23.77778        9.71485       22.07930       -0.834
       22.93288        9.86763       21.65617        0.417