%Nproc=32
%Mem=120Gb
%chk=temp.chk
#p cam-b3lyp/6-31+G(d,p) nosymm charge Freq 

Calculation for S0 with freq for abs spect

0  1
 C         15.67001       17.52951       16.07990
 C         17.29263       15.73382       15.50664
 C         17.69386       15.59301       16.75284
 C         17.02629       16.30618       17.76575
 N         16.02668       17.20797       17.42578
 H         17.67125       15.12497       14.63812
 H         18.45954       14.96849       17.03646
 O         17.17321       16.07324       18.97937
 O         14.84122       18.33227       15.79511
 N         16.36929       16.69331       15.18925
 H         15.95504       16.77448       14.32139
 H         15.50575       17.72944       18.15479
 O         16.47133       17.53058       11.86958
 H         15.98263       18.33696       12.03434
 H         15.89158       17.00746       11.31598
 O         20.62894       16.48413       16.37017
 H         20.52506       16.50154       15.41878
 H         20.21114       15.66705       16.64229
 O         20.39852       19.12919       16.69728
 H         19.50419       19.19393       16.36230
 H         20.67507       18.24069       16.47298
 O         15.64633       14.22936       20.92770
 H         16.60132       14.25465       20.86783
 H         15.35315       14.08687       20.02771
 O         14.43585       13.56007       18.53338
 H         14.69602       13.34355       17.63802
 H         13.62153       14.05328       18.43405
 O         19.14481       13.02071       20.06253
 H         18.71141       13.83073       20.33131
 H         20.00921       13.29980       19.76061
 O         19.48842       19.78940       19.33761
 H         19.88042       19.69985       18.46897
 H         19.57502       20.71980       19.54523
 O         18.29027       16.79944       20.73354
 H         17.83683       17.63978       20.80027
 H         19.18828       16.98904       21.00532
 O         17.99498       19.70874       15.00422
 H         18.31056       20.30938       14.32904
 H         17.05220       19.64839       14.85011
 O         13.56642       14.94915       12.77740
 H         13.86341       15.15903       13.66283
 H         13.62902       15.77688       12.30076
 O         12.29026       16.07990       16.52111
 H         13.04156       15.91014       15.95281
 H         11.59434       15.52335       16.17157
 O         20.17351       16.49280       13.70265
 H         19.36231       16.03650       13.47910
 H         19.99036       17.41349       13.51555
 O         15.72152       12.49324       16.32620
 H         16.47104       11.91899       16.48333
 H         15.24867       12.07862       15.60458
 O         17.94277       15.34821       12.28185
 H         17.30774       14.63999       12.17508
 H         17.45342       16.14322       12.07034
 O         12.98809       19.81324       17.95215
 H         13.21365       18.98701       18.37958
 H         12.11344       20.02216       18.28011
 
       20.91145        8.72238       11.12684       -0.834
       21.49584        8.78246       10.37112        0.417
       20.67827        9.62986       11.32264        0.417
       27.29263        9.45380       24.99890       -0.834
       26.46020        9.78725       24.66408        0.417
       27.79620        9.23479       24.21488        0.417
       14.98153       20.84030        8.78646       -0.834
       14.10631       21.22154        8.85626        0.417
       15.39226       21.02607        9.63087        0.417
       23.73348       17.12312       14.55773       -0.834
       24.16323       17.15355       13.70296        0.417
       24.15499       17.81819       15.06314        0.417
       11.31895       17.14232       22.96891       -0.834
       12.03186       16.52837       22.79270        0.417
       11.14498       17.04574       23.90520        0.417
       18.89102       22.72442       18.91762       -0.834
       18.23946       22.76440       18.21754        0.417
       18.55458       23.31395       19.59253        0.417
       27.02262       18.85663       24.78083       -0.834
       27.40066       19.18719       23.96594        0.417
       27.61467       18.15544       25.05294        0.417
        9.63112       19.39355       23.77981       -0.834
        9.10293       18.61777       23.96796        0.417
       10.20782       19.48107       24.53876        0.417
       21.62041       17.28496       18.94312       -0.834
       22.30808       17.95024       18.91584        0.417
       21.50465       17.02191       18.03008        0.417
       15.81376       26.45502       26.43158       -0.834
       16.31929       26.37971       27.24090        0.417
       15.59833       25.55202       26.19829        0.417
        7.65362       19.00411       29.43185       -0.834
        7.46836       19.92584       29.61164        0.417
        8.10560       19.01032       28.58810        0.417
       15.82503        9.81969        5.80951       -0.834
       14.94160       10.10245        6.04580        0.417
       15.69295        9.01950        5.30109        0.417
       15.15195       11.40939       25.16396       -0.834
       15.36766       11.72714       26.04073        0.417
       15.06161       10.46210       25.26749        0.417
       18.89592       21.26301       28.68885       -0.834
       19.49216       20.96380       28.00240        0.417
       18.81936       20.51609       29.28255        0.417
       21.81455       22.82371       28.66060       -0.834
       22.55737       23.27908       28.26426        0.417
       22.17749       21.99178       28.96456        0.417
       22.84912        7.68005       25.70367       -0.834
       22.68664        7.65116       24.76081        0.417
       22.37144        6.92756       26.05268        0.417
       18.96791       24.33968        8.89460       -0.834
       19.61252       23.70407        9.20558        0.417
       18.98555       24.25268        7.94153        0.417
       14.61742        9.12684       16.53402       -0.834
       15.24822        8.77112       15.90810        0.417
       14.36969        8.37831       17.07677        0.417
       23.96917       24.94756        9.10118       -0.834
       23.79247       25.20007       10.00741        0.417
       24.89490       25.15315        8.97090        0.417
        4.14050       24.43236       18.16476       -0.834
        3.76648       25.29977       18.01004        0.417
        5.08223       24.58685       18.23905        0.417
        4.42340        8.65751       20.78405       -0.834
        5.25662        8.94626       21.15633        0.417
        4.65830        8.27283       19.93961        0.417
       28.66335       21.78903       12.91874       -0.834
       28.53967       22.23247       13.75797        0.417
       29.56698       21.47436       12.94446        0.417
       14.77243       29.46407       12.39508       -0.834
       14.90955       28.54209       12.61279        0.417
       14.41218       29.45026       11.50837        0.417
       18.08972       18.73975        2.87788       -0.834
       18.22036       17.80055        3.00850        0.417
       17.85218       19.07171        3.74368        0.417
       14.57831       18.50728       21.70324       -0.834
       14.25164       17.64909       21.97348        0.417
       15.52020       18.38050       21.58920        0.417
       21.83275       10.66995       17.37588       -0.834
       22.38912       11.03136       18.06585        0.417
       21.47626        9.86515       17.75197        0.417
        6.70011       17.79527        6.50666       -0.834
        6.70646       18.14128        5.61421        0.417
        5.81183       17.45980        6.62766        0.417
       25.35122       12.03069       10.45955       -0.834
       24.63789       12.05380       11.09740        0.417
       25.90451       12.77666       10.69114        0.417
       17.07503       19.69724        5.43137       -0.834
       16.32235       19.14736        5.64885        0.417
       16.77871       20.59024        5.60733        0.417
       19.76258       28.03187       11.34609       -0.834
       20.26731       27.36748       10.87697        0.417
       19.04955       27.54453       11.75879        0.417
       30.40127       13.72793       17.48586       -0.834
       29.49875       13.41383       17.43081        0.417
       30.91517       12.94676       17.69062        0.417
       24.90538        8.65086       16.68657       -0.834
       24.20771        9.04595       16.16370        0.417
       25.69277        9.13768       16.44313        0.417
       21.13753       23.18832       25.27943       -0.834
       21.13510       22.46486       24.65266        0.417
       22.04820       23.48218       25.30321        0.417
       16.16588       21.27509       11.07373       -0.834
       17.10371       21.08589       11.04430        0.417
       15.84426       20.77800       11.82585        0.417
       23.52356       17.98354        5.27432       -0.834
       24.01478       18.44727        5.95247        0.417
       23.60822       17.05882        5.50659        0.417
       23.03223       18.78093        2.60150       -0.834
       22.87314       18.35668        3.44467        0.417
       22.20204       19.20602        2.38631        0.417
       21.85300       14.44061       14.55081       -0.834
       22.28948       15.25376       14.80479        0.417
       21.17884       14.71426       13.92883        0.417
       17.77707       26.11243       10.44810       -0.834
       18.20676       25.45425        9.90184        0.417
       17.35598       25.60854       11.14452        0.417
       10.85537        8.61209       21.30606       -0.834
       11.65576        9.13146       21.22949        0.417
       10.15595        9.26009       21.39052        0.417
       14.78139       26.32773        6.60031       -0.834
       15.62163       26.75981        6.75372        0.417
       14.91708       25.81515        5.80339        0.417
       24.79344       19.97667       10.83219       -0.834
       25.73881       20.09628       10.92280        0.417
       24.48760       20.78506       10.42085        0.417
        7.37514       11.17834        6.16442       -0.834
        6.50980       10.78522        6.05099        0.417
        7.44644       11.33400        7.10619        0.417
        8.14280       12.19874       27.54962       -0.834
        7.57102       11.43243       27.59478        0.417
        8.74825       12.08998       28.28299        0.417
       13.95332        8.17492        8.29507       -0.834
       14.00710        7.88446        9.20555        0.417
       14.51323        8.95034        8.25707        0.417
       19.29906       11.17620       26.95851       -0.834
       18.75808       11.84606       26.54039        0.417
       19.68230       11.61633       27.71722        0.417
       10.55657       26.69638       21.98144       -0.834
       10.53997       27.23379       22.77337        0.417
       11.05255       27.21623       21.34900        0.417
        8.76635        5.07913       14.13568       -0.834
        8.65464        4.45465       13.41890        0.417
        9.07205        4.54817       14.87111        0.417
       26.05703       19.08786       28.00409       -0.834
       25.67015       18.23578       27.80280        0.417
       26.01206       19.57257       27.17991        0.417
       27.05486       21.90765       24.42305       -0.834
       27.95803       21.81389       24.72589        0.417
       27.09860       21.73891       23.48185        0.417
        8.88721       25.36627       19.64354       -0.834
        9.21789       26.10165       19.12769        0.417
        9.23114       25.51689       20.52403        0.417
        8.21878       21.63774       11.58863       -0.834
        8.58818       20.96067       12.15550        0.417
        7.70266       21.15494       10.94306        0.417
       24.03865       25.39387       11.85153       -0.834
       23.18094       25.60835       12.21836        0.417
       24.65425       25.93030       12.35105        0.417
       27.26165       13.64103       12.56796       -0.834
       26.80234       14.46081       12.38567        0.417
       28.07861       13.70864       12.07376        0.417
       12.02691       24.09640       23.09450       -0.834
       11.63866       23.25183       22.86606        0.417
       11.49815       24.73929       22.62192        0.417
       15.73125       21.66188       15.98354       -0.834
       16.11864       22.21007       16.66593        0.417
       14.78962       21.81764       16.05634        0.417
       26.99534       18.99686       14.09048       -0.834
       27.85429       19.35071       13.85977        0.417
       26.47680       19.76418       14.33250        0.417
       12.85967       25.37527       17.32352       -0.834
       13.45767       25.12342       18.02722        0.417
       13.42181       25.78514       16.66607        0.417
       28.91139       22.22822       17.55663       -0.834
       29.19543       23.05771       17.94070        0.417
       28.39306       22.48232       16.79309        0.417
       11.91915       12.85545        4.48038       -0.834
       12.10766       12.22291        3.78713        0.417
       11.02078       12.65939        4.74634        0.417
       12.99946        9.37559       19.55800       -0.834
       12.32283        9.91116       19.14378        0.417
       13.09447        8.61911       18.97927        0.417
       29.77297       18.18916       12.27643       -0.834
       30.57447       17.72685       12.52161        0.417
       29.93937       19.10107       12.51507        0.417
        8.98237       28.97165       11.34418       -0.834
        9.79649       29.07060       11.83778        0.417
        9.06742       28.12359       10.90852        0.417
       17.21812       27.02474       16.13569       -0.834
       16.37585       26.59737       16.29101        0.417
       16.99439       27.84027       15.68726        0.417
        6.34278        4.53076       17.16723       -0.834
        5.83109        4.99954       16.50795        0.417
        7.02916        5.14758       17.42152        0.417
       22.22508       21.20641       20.48884       -0.834
       22.62108       20.55856       21.07168        0.417
       22.73039       21.14088       19.67853        0.417
       19.45571        6.39521       27.13382       -0.834
       18.92234        5.61623       27.29174        0.417
       20.09758        6.39457       27.84391        0.417
        9.68775        8.52064        9.63136       -0.834
       10.59935        8.27309        9.47662        0.417
        9.22785        8.25218        8.83597        0.417
       19.24505        6.68154       22.69802       -0.834
       19.25688        7.28928       21.95859        0.417
       18.61330        7.05990       23.30955        0.417
       21.06238       17.91008       10.96466       -0.834
       21.73539       18.25620       10.37857        0.417
       20.31628       17.72911       10.39298        0.417
        4.76807       10.55001       13.52226       -0.834
        4.07554       11.06368       13.10660        0.417
        5.58111       10.92543       13.18424        0.417
       24.87245        7.53875        8.48290       -0.834
       24.02745        7.45611        8.04089        0.417
       24.66708        7.44379        9.41297        0.417
       15.75469       10.46299       11.63729       -0.834
       16.35539       10.02506       12.24029        0.417
       15.56033        9.80368       10.97113        0.417
       13.81989       22.95504        5.26545       -0.834
       13.54887       23.27262        6.12680        0.417
       14.76812       22.84582        5.33738        0.417
       16.12780       11.52388       27.69602       -0.834
       16.90854       12.00837       27.96419        0.417
       15.92001       10.96864       28.44752        0.417
       14.61460       27.49144       17.02544       -0.834
       14.29311       27.57708       17.92296        0.417
       14.57494       28.37953       16.67054        0.417
       13.61145       20.04657       24.44649       -0.834
       13.27723       19.66911       23.63282        0.417
       13.91235       20.92105       24.19955        0.417
       29.15278       20.05350       15.71668       -0.834
       28.42876       19.48376       15.97635        0.417
       29.18401       20.72678       16.39635        0.417
       10.89819        1.81900       16.90649       -0.834
       10.19526        2.40272       16.62119        0.417
       11.54661        2.40043       17.30365        0.417
       12.63711       12.37763       16.48986       -0.834
       12.35281       12.98676       15.80840        0.417
       13.06228       11.66508       16.01265        0.417
       14.18240       29.15249       21.71394       -0.834
       14.49672       29.89948       21.20458        0.417
       14.82958       29.04829       22.41147        0.417
       21.93051       29.88051       16.38549       -0.834
       22.38113       29.46548       17.12096        0.417
       21.31773       29.21488       16.07297        0.417
        8.19602       16.92745       24.33002       -0.834
        8.62760       16.07307       24.32946        0.417
        7.27713       16.73227       24.14623        0.417
       21.16737        4.73117       23.22657       -0.834
       20.62565        5.50811       23.08825        0.417
       20.55707        3.99724       23.15502        0.417
       18.62311       11.10112        5.05117       -0.834
       17.69960       10.84943        5.05572        0.417
       18.86804       11.13181        5.97599        0.417
       21.50145       25.81423       13.18797       -0.834
       21.78029       26.10000       14.05792        0.417
       20.63824       26.21080       13.07034        0.417
       11.48627        9.61446       27.26727       -0.834
       11.69895        9.43883       26.35067        0.417
       12.26103        9.33006       27.75215        0.417
       22.90833       20.50434       29.65751       -0.834
       22.20471       20.18802       30.22417        0.417
       23.35345       21.17299       30.17809        0.417
       13.34773       20.78447        3.39239       -0.834
       13.38839       21.05111        2.47397        0.417
       13.33457       21.60752        3.88089        0.417
        6.37863       16.12249       10.52626       -0.834
        5.71562       16.81289       10.52754        0.417
        6.69417       16.09446        9.62300        0.417
       16.00776       22.72672       18.47790       -0.834
       15.88770       22.07867       19.17206        0.417
       15.50509       23.48715       18.76995        0.417
        8.84774       12.27133       14.14985       -0.834
        8.63649       12.26233       15.08341        0.417
        8.00173       12.18010       13.71148        0.417
       23.25646       15.39168        4.49626       -0.834
       23.54983       14.50540        4.70761        0.417
       23.66351       15.58418        3.65158        0.417
        5.93838       18.24366       26.38086       -0.834
        5.96311       17.30782       26.58042        0.417
        6.85060       18.52669       26.44399        0.417
       18.65922       20.48009       10.60669       -0.834
       19.14576       21.07750       10.03871        0.417
       18.75753       19.62241       10.19322        0.417
       19.22001       21.00944       13.18451       -0.834
       19.32019       20.87854       12.24161        0.417
       20.05804       20.73322       13.55552        0.417
       15.01215       24.28761       29.66437       -0.834
       15.75098       24.86071       29.86912        0.417
       14.85029       24.42869       28.73157        0.417
       13.18924       22.96816       15.52251       -0.834
       12.76589       23.06802       14.66985        0.417
       12.64442       23.47792       16.12213        0.417
       11.18720       29.18678       12.52454       -0.834
       10.99261       29.36191       13.44525        0.417
       11.97292       28.64046       12.54502        0.417
       20.79180       17.23033       29.11629       -0.834
       20.75022       17.66502       29.96808        0.417
       20.22545       17.75554       28.55094        0.417
       23.13895       18.44107        9.06597       -0.834
       23.42633       17.53211        8.97970        0.417
       23.90094       18.90132        9.41779        0.417
        7.17757       16.54896       16.20908       -0.834
        7.20468       16.54561       15.25227        0.417
        6.72267       17.36072       16.43343        0.417
       22.76358        5.24031       17.94549       -0.834
       23.68655        5.47649       18.03807        0.417
       22.73323        4.69424       17.15991        0.417
        8.90528       18.26192       26.83023       -0.834
        9.79824       18.60337       26.78248        0.417
        8.95443       17.40218       26.41230        0.417
       19.11709        2.43159       20.00233       -0.834
       18.41025        2.96143       19.63371        0.417
       19.83767        2.52591       19.37935        0.417
        9.72032        6.44340       19.69376       -0.834
       10.33520        7.03752       20.12407        0.417
        9.63349        5.70763       20.29984        0.417
       21.32331       22.54296       15.99379       -0.834
       21.76959       22.63699       16.83535        0.417
       21.00167       23.42190       15.79318        0.417
       15.72469       10.52356        8.54038       -0.834
       15.86410       10.54667        7.59367        0.417
       15.27232       11.34401        8.73645        0.417
       25.06926       21.84004       26.04684       -0.834
       25.86845       21.70273       25.53824        0.417
       24.74773       22.69554       25.76231        0.417
        5.57822       18.94541       12.78425       -0.834
        5.76889       19.57918       12.09272        0.417
        4.79573       18.48594       12.47959        0.417
       11.54817       14.87917       30.14237       -0.834
       11.97152       15.63874       29.74230        0.417
       12.24301       14.22411       30.20813        0.417
       16.21947       11.31418       22.73361       -0.834
       15.66803       11.23765       23.51226        0.417
       16.08775       10.49036       22.26434        0.417
       20.77390       16.38187        6.97117       -0.834
       20.21163       17.15399        7.03376        0.417
       21.64497       16.73358        6.78743        0.417
        9.33284        4.84003       22.06972       -0.834
        8.76896        4.09421       22.27474        0.417
        8.72608        5.54266       21.83650        0.417
       10.08169       15.10906       18.69100       -0.834
       10.94005       15.42810       18.41233        0.417
        9.73062       15.81156       19.23825        0.417
       10.98256       17.55557        4.91230       -0.834
       10.77746       18.32061        4.37483        0.417
       10.93377       16.81637        4.30614        0.417
        3.94029       14.13407       23.74350       -0.834
        4.06077       13.62699       24.54636        0.417
        3.38080       14.86589       24.00355        0.417
        5.14381       14.80266       12.53879       -0.834
        5.45576       15.32371       11.79891        0.417
        4.85184       15.44916       13.18146        0.417
       11.52641       11.48056       22.53024       -0.834
       10.97232       12.13044       22.09800        0.417
       12.42055       11.74789       22.31750        0.417
       13.14589       16.29253       27.50959       -0.834
       13.37825       15.50762       28.00572        0.417
       13.71553       16.26785       26.74074        0.417
       18.10276       10.70308       16.02855       -0.834
       18.46053       10.77376       16.91356        0.417
       18.82664       10.95700       15.45607        0.417
       23.16339       28.50943       18.42828       -0.834
       23.73094       28.95812       19.05502        0.417
       22.82404       27.75470       18.90938        0.417
       20.69380       22.31566        9.53770       -0.834
       21.11757       21.97418       10.32512        0.417
       21.07238       21.80614        8.82126        0.417
       31.44878       21.45284       15.21669       -0.834
       30.65625       20.95873       15.42641        0.417
       31.55265       21.34965       14.27075        0.417
       23.50710        4.11493       15.42701       -0.834
       22.98383        3.56677       14.84226        0.417
       24.41278        3.94751       15.16633        0.417
       13.78543        6.18527       24.55972       -0.834
       13.76925        5.95033       25.48750        0.417
       12.89336        6.47601       24.37019        0.417
       24.61838       19.64635       16.10089       -0.834
       25.01553       20.48847       15.87880        0.417
       25.33988       19.12683       16.45552        0.417
       19.98209       27.82368       15.91797       -0.834
       20.73574       27.27687       16.13986        0.417
       19.22990       27.35248       16.27633        0.417
        4.91849        7.49722       18.55852       -0.834
        4.40639        7.97304       17.90462        0.417
        5.64729        7.12080       18.06516        0.417
       13.93581       10.72529       14.23342       -0.834
       13.88027        9.92718       14.75894        0.417
       14.71549       10.60231       13.69193        0.417
       21.27672       12.07119        4.21684       -0.834
       21.06202       12.87066        4.69744        0.417
       20.53182       11.49048        4.37213        0.417
       18.41754       22.51572        3.55432       -0.834
       17.50428       22.41068        3.28755        0.417
       18.86099       21.74455        3.20094        0.417
       25.35074        5.27392       22.58892       -0.834
       24.48954        5.48703       22.22954        0.417
       25.20477        5.19593       23.53170        0.417
       29.23015        9.99282       13.85063       -0.834
       29.78529       10.50193       14.44128        0.417
       29.73292        9.19754       13.67464        0.417
       12.19235       19.81862       22.05592       -0.834
       12.98874       19.36212       21.78464        0.417
       11.54234       19.12418       22.16303        0.417
        7.05044       26.97329       13.37880       -0.834
        7.02626       27.01238       12.42270        0.417
        6.58619       26.16536       13.59777        0.417
       26.98185       25.58617       17.66141       -0.834
       27.31514       26.45235       17.89568        0.417
       26.92711       25.60048       16.70588        0.417
       27.33496       22.24020       21.58877       -0.834
       26.86791       22.95861       21.16218        0.417
       28.24565       22.53295       21.62321        0.417
        8.78830       10.77470       20.90030       -0.834
        9.64472       10.87327       20.48430        0.417
        8.69475       11.55617       21.44508        0.417
       17.84046       28.32261       26.19804       -0.834
       17.86390       28.69165       27.08093        0.417
       17.11066       27.70350       26.21602        0.417
       28.42472       19.38857       22.22660       -0.834
       28.26474       20.13479       21.64886        0.417
       29.07467       18.86083       21.76260        0.417
       10.71001       19.58316       19.43882       -0.834
       10.74811       20.38513       19.95999        0.417
        9.84264       19.60078       19.03435        0.417
       10.36334       17.36859       10.15310       -0.834
       10.24695       16.43160       10.31039        0.417
       10.68084       17.42300        9.25173        0.417
       11.24639        6.86846       24.02301       -0.834
       10.95939        6.70705       23.12423        0.417
       10.43763        6.87948       24.53488        0.417
       17.65755       16.35020        3.95050       -0.834
       16.84445       16.76242        4.24226        0.417
       17.45528       15.41509        3.92062        0.417
        8.64604        8.61470       12.30348       -0.834
        9.49328        8.87045       12.66817        0.417
        8.82036        8.46378       11.37446        0.417
        7.59706       15.64054       27.62635       -0.834
        6.87192       15.51225       27.01484        0.417
        7.99248       14.77335       27.71503        0.417
       11.27811       21.00572       14.96865       -0.834
       10.71491       21.59570       15.46962        0.417
       12.09708       20.97806       15.46339        0.417
        8.49924       22.30095       19.35787       -0.834
        7.74637       22.86688       19.52859        0.417
        9.04943       22.39230       20.13580        0.417
        8.92112        8.61427       26.64152       -0.834
        9.09265        7.71990       26.34672        0.417
        9.70193        8.85680       27.13927        0.417
       15.26355       16.37632       25.51259       -0.834
       15.93306       15.69223       25.51045        0.417
       15.00741       16.46431       24.59450        0.417
       24.09587       22.12221        9.15843       -0.834
       24.25402       23.01428        9.46735        0.417
       23.39120       22.21181        8.51684        0.417
       18.72954       24.50301       21.09665       -0.834
       19.67014       24.41818       21.25258        0.417
       18.48107       25.30401       21.55805        0.417
       14.19668        7.54134       11.08806       -0.834