%Nproc=32
%Mem=120Gb
%chk=temp.chk
#p cam-b3lyp/6-31+G(d,p) nosymm charge Freq 

Calculation for S0 with freq for abs spect

0  1
 C         15.67001       17.52951       16.07990
 C         17.29263       15.73382       15.50664
 C         17.69386       15.59301       16.75284
 C         17.02629       16.30618       17.76575
 N         16.02668       17.20797       17.42578
 H         17.67125       15.12497       14.63812
 H         18.45954       14.96849       17.03646
 O         17.17321       16.07324       18.97937
 O         14.84122       18.33227       15.79511
 N         16.36929       16.69331       15.18925
 H         15.95504       16.77448       14.32139
 H         15.50575       17.72944       18.15479
 O         19.63543       15.94024       13.23447
 H         20.32360       16.45606       12.81426
 H         19.42032       16.42904       14.02886
 O         21.13571       16.64335       16.40374
 H         21.17895       16.44365       17.33888
 H         21.08722       15.78761       15.97760
 O         13.46760       18.42374       18.43616
 H         13.02646       19.23511       18.68776
 H         14.17198       18.32495       19.07673
 O         18.32251       19.85117       14.06952
 H         19.02080       19.37284       13.62251
 H         18.77686       20.38756       14.71920
 O         17.87796       12.62746       14.13210
 H         18.09182       13.04779       14.96505
 H         17.37685       13.28688       13.65221
 O         20.49427       15.75933       18.99827
 H         19.68969       15.75607       19.51680
 H         21.17927       15.50487       19.61654
 O         16.23289       19.85146       19.98761
 H         16.02665       18.94204       20.20358
 H         16.59094       19.81226       19.10077
 O         13.44483       13.34884       19.69594
 H         14.24776       13.79643       19.42913
 H         13.73755       12.67867       20.31354
 O         11.43346       16.31541       17.45150
 H         12.09921       16.98085       17.62525
 H         10.63831       16.81449       17.26472
 O         15.54053       20.13375       13.77666
 H         16.48452       20.26463       13.86606
 H         15.45026       19.22447       13.49154
 O         19.60006       20.88433       18.42420
 H         18.97410       20.18330       18.24260
 H         19.06958       21.68087       18.44273
 O         17.36590       12.51547       17.85005
 H         16.75024       13.22253       18.04308
 H         18.17630       12.77686       18.28727
 O         15.39437       17.34464       20.27397
 H         14.68098       17.17143       20.88822
 H         15.48415       16.53255       19.77528
 O         12.41134       17.78593       14.05995
 H         12.41477       16.84769       14.24948
 H         13.31087       17.98097       13.79721
 O         13.29992       15.24919       13.71405
 H         12.43355       14.92611       13.46652
 H         13.88106       14.49932       13.58674
 O         21.31770       13.28698       15.91184
 H         20.39018       13.38837       16.12553
 H         21.33218       13.15042       14.96454
 O         16.03924       14.52606       19.93804
 H         16.91619       14.76956       20.23453
 H         15.64258       14.09174       20.69320
 O         16.92967       16.40634       11.82400
 H         17.62376       16.90988       11.39867
 H         17.27089       15.51289       11.86318
 O         14.64181       17.50166       12.44235
 H         14.20849       16.65532       12.55268
 H         15.54659       17.28100       12.22119
 
       12.71639       27.68726       26.64803       -0.834
       13.38855       27.20580       26.16572        0.417
       11.88840       27.33034       26.32668        0.417
        8.17566        8.83746       12.03044       -0.834
        8.39176        8.95061       11.10485        0.417
        9.02407        8.76902       12.46834        0.417
       16.41902       10.84081        8.89254       -0.834
       17.13507       11.46902        8.79837        0.417
       16.53053       10.47988        9.77205        0.417
        4.73026       22.38116       22.75527       -0.834
        5.66054       22.25763       22.94383        0.417
        4.53684       23.26426       23.06984        0.417
        6.47087        8.45475       22.93099       -0.834
        7.38283        8.74237       22.88827        0.417
        5.96579        9.21447       22.64124        0.417
       27.76608       26.43047       18.26694       -0.834
       28.32952       27.05594       17.81136        0.417
       26.96282       26.40798       17.74684        0.417
       16.24726       21.94403       25.29978       -0.834
       16.17916       21.95480       26.25450        0.417
       16.86842       21.24053       25.11142        0.417
       11.31222       11.65337       16.29101       -0.834
       11.41298       12.31644       16.97396        0.417
       10.36754       11.59933       16.14649        0.417
       21.22293       19.53740       13.18577       -0.834
       22.16210       19.69717       13.27884        0.417
       20.88473       20.33019       12.76942        0.417
       25.25753       23.39747       11.46603       -0.834
       25.44652       22.47448       11.29692        0.417
       25.20366       23.79458       10.59676        0.417
       14.44654        8.94743       12.96928       -0.834
       14.69523        9.71794       13.47986        0.417
       15.24894        8.42875       12.91128        0.417
       31.25421       16.68389       19.98669       -0.834
       31.03731       17.50179       19.53922        0.417
       32.15499       16.49720       19.72219        0.417
        9.08424       18.22078       17.92150       -0.834
        9.33607       19.14343       17.96042        0.417
        9.05340       17.94162       18.83657        0.417
       15.05275       22.09167        3.36457       -0.834
       14.68007       22.57586        2.62776        0.417
       15.88998       22.52275        3.53615        0.417
       25.76829       17.83984        4.55437       -0.834
       26.56279       18.34163        4.73662        0.417
       25.11873       18.49917        4.31029        0.417
        5.10157       25.50581       11.53673       -0.834
        6.05644       25.51036       11.47015        0.417
        4.90465       26.15968       12.20748        0.417
        3.34908       18.23992       13.15985       -0.834
        4.10503       18.18252       12.57549        0.417
        3.34359       19.14999       13.45646        0.417
        7.54960       27.51783       18.97510       -0.834
        7.98226       27.87988       19.74837        0.417
        8.24962       27.07885       18.49189        0.417
       28.78923       11.38974        9.66395       -0.834
       29.48768       11.88422        9.23513        0.417
       28.88088       10.50004        9.32298        0.417
        6.14981       11.38277       19.69430       -0.834
        5.49712       10.99225       20.27543        0.417
        6.88801       10.77393       19.71897        0.417
       10.48898        6.92235       18.56765       -0.834
        9.55458        6.90874       18.36039        0.417
       10.76738        7.81485       18.36230        0.417
       18.74402       17.97597       10.26848       -0.834
       19.24833       18.72933        9.96131        0.417
       19.37970       17.26139       10.30743        0.417
       19.30485       10.42592       12.85718       -0.834
       19.82037       10.62700       12.07613        0.417
       19.03321       11.28051       13.19201        0.417
       20.79296       27.94933       21.56454       -0.834
       20.37622       28.00199       22.42465        0.417
       21.53885       27.36373       21.69472        0.417
       14.28072       21.89891       12.03445       -0.834
       15.01909       22.27437       11.55479        0.417
       14.67318       21.22623       12.59096        0.417
        4.88971       10.42085       21.75615       -0.834
        5.11548       11.02337       22.46483        0.417
        3.94706       10.28319       21.84936        0.417
        3.43326       20.71811       14.33030       -0.834
        3.32483       20.55209       15.26674        0.417
        2.80313       21.41167       14.13500        0.417
       20.34281       21.08917       15.75026       -0.834
       20.21463       21.13926       16.69751        0.417
       21.29264       21.04999       15.63834        0.417
       12.47343       23.73658       10.75921       -0.834
       12.71401       24.34797       11.45530        0.417
       13.02079       22.96711       10.91586        0.417
       24.30800       16.42867        7.49870       -0.834
       25.10172       16.57182        8.01420        0.417
       24.43243       16.96174        6.71347        0.417
       22.56254       17.05231       29.95629       -0.834
       22.77412       17.54432       29.16295        0.417
       22.72833       16.13877       29.72350        0.417
       14.28880        4.90051       11.72135       -0.834
       14.39375        3.96112       11.87224        0.417
       13.70415        5.19210       12.42091        0.417
       19.66965        6.85044       10.03140       -0.834
       20.32862        6.82024        9.33780        0.417
       18.91417        7.27632        9.62629        0.417
       11.29739        2.38211       15.52639       -0.834
       12.24655        2.37060       15.64963        0.417
       10.94728        2.63006       16.38206        0.417
       23.04715        9.54081       19.49917       -0.834
       22.59685       10.09647       18.86300        0.417
       23.24947        8.73915       19.01683        0.417
        6.02917       14.85802       14.27298       -0.834
        6.14647       14.90003       13.32393        0.417
        5.08054       14.82453       14.39629        0.417
       22.69166       12.49285       10.73395       -0.834
       22.41899       12.99267        9.96450        0.417
       22.54723       11.57864       10.48983        0.417
       13.42435        9.69826       16.69262       -0.834
       13.97787        9.81990       15.92123        0.417
       12.82600       10.44527       16.67887        0.417
        8.65244        6.47143       15.20019       -0.834
        8.84528        6.85572       14.34499        0.417
        8.36169        5.58101       15.00312        0.417
       22.88374       15.41390       14.13146       -0.834
       22.53191       15.85930       13.36070        0.417
       23.16943       16.12224       14.70841        0.417
        8.48668       22.29617       26.03474       -0.834
        8.02515       22.26083       25.19689        0.417
        9.40886       22.39229       25.79688        0.417
        6.69870       21.27853       17.54872       -0.834
        6.59682       21.98051       16.90602        0.417
        5.89723       21.31308       18.07092        0.417
       22.60338       18.63433        5.63207       -0.834
       22.83891       17.76875        5.29812        0.417
       21.65064       18.60654        5.72003        0.417
       13.25217       12.56676       29.69681       -0.834
       12.73509       12.46278       28.89803        0.417
       13.83235       11.80551       29.70793        0.417
       25.01883       20.40443        5.68663       -0.834
       24.94984       20.95345        6.46768        0.417
       24.14436       20.03061        5.57804        0.417
        8.87398       15.26217        4.45590       -0.834
        8.86363       15.39027        5.40444        0.417
        8.88465       16.14833        4.09417        0.417
        7.72972       13.23387       15.77676       -0.834
        7.12407       13.84427       15.35625        0.417
        7.18268       12.49145       16.03327        0.417
       25.11509       21.38680        9.00314       -0.834
       25.96364       21.12544        9.36075        0.417
       25.25286       22.27945        8.68625        0.417
       14.52688        3.79228       15.15269       -0.834
       14.35239        2.98299       14.67223        0.417
       15.45333        3.73730       15.38697        0.417
       27.39358       14.20515       18.54517       -0.834
       26.81133       14.91488       18.27408        0.417
       27.05628       13.43196       18.09279        0.417
       25.02012       23.26988       16.54681       -0.834
       24.77966       24.19604       16.57234        0.417
       25.70817       23.18230       17.20646        0.417
       16.42486       25.98256       23.22520       -0.834
       16.84133       25.39290       23.85376        0.417
       16.55340       25.55849       22.37674        0.417
        5.29865       23.44768       15.70836       -0.834
        5.70369       23.27575       14.85830        0.417
        5.63518       24.30613       15.96533        0.417
       11.22143       14.28975       21.15926       -0.834
       10.43011       13.75392       21.10504        0.417
       11.91137       13.73663       20.79285        0.417
        5.54423       17.63267       11.19908       -0.834
        6.05729       16.82458       11.20139        0.417
        5.34651       17.78877       10.27562        0.417
       16.39958       24.20717       14.46067       -0.834
       16.50403       24.33759       13.51816        0.417
       17.01238       24.82595       14.85793        0.417
       16.36989       23.31775       20.97784       -0.834
       15.42275       23.43837       21.04573        0.417
       16.56646       22.61080       21.59250        0.417
       17.64991       25.24265       29.03303       -0.834
       18.54372       25.58462       29.01340        0.417
       17.27695       25.49728       28.18905        0.417
       24.64194       12.63146       27.06776       -0.834
       25.24103       13.13013       27.62333        0.417
       24.72898       11.72789       27.37144        0.417
       16.68062       26.08097        5.07800       -0.834
       16.76756       25.76774        5.97831        0.417
       16.34540       26.97325        5.16565        0.417
       13.05384       23.36609       27.39875       -0.834
       12.79339       23.65903       28.27199        0.417
       13.93878       23.02044       27.51558        0.417
        3.34873       12.52025       17.08269       -0.834
        3.02985       11.62013       17.14846        0.417
        4.11210       12.46303       16.50806        0.417
        3.15385       16.05032       14.74828       -0.834
        2.24922       15.80910       14.54903        0.417
        3.37960       16.70328       14.08578        0.417
       24.63559       24.68897       23.92228       -0.834
       24.06553       24.10130       24.41817        0.417
       25.44302       24.19050       23.79651        0.417
       25.33165        9.94810       23.00068       -0.834
       25.66828        9.89569       23.89520        0.417
       25.91234        9.38201       22.49218        0.417
       10.08608       27.07994       14.96197       -0.834
        9.87359       26.69300       15.81130        0.417
       10.00547       26.35565       14.34137        0.417
       23.77216       20.24680       13.30733       -0.834
       24.43558       20.23870       13.99729        0.417
       24.27308       20.21315       12.49236        0.417
        2.06592       16.84036       11.14136       -0.834
        2.46229       17.39589       11.81256        0.417
        2.47019       17.12760       10.32265        0.417
        5.94403       14.86364       25.10932       -0.834
        5.41806       15.45384       24.56964        0.417
        6.41764       15.44263       25.70656        0.417
       26.16804       27.87922       16.61391       -0.834
       25.33287       28.34114       16.54069        0.417
       26.76700       28.37660       16.05705        0.417
       10.04498       22.76407       10.78997       -0.834
       10.34538       21.90058       11.07349        0.417
       10.82037       23.32145       10.85576        0.417
       20.13650       25.19695        7.26521       -0.834
       20.20732       25.74841        6.48604        0.417
       19.27455       24.78722        7.19169        0.417
       22.55789       15.03299       23.42567       -0.834
       22.66831       14.11179       23.66112        0.417
       23.36296       15.45539       23.72510        0.417
       20.19581       20.22113       22.48552       -0.834
       20.70083       21.03415       22.49907        0.417
       20.59017       19.70535       21.78218        0.417
       14.01519        9.06602       24.28039       -0.834
       14.46498        8.48604       24.89484        0.417
       14.46234        8.92481       23.44592        0.417
       23.47868       26.81754       22.69226       -0.834
       24.14065       27.41680       22.34742        0.417
       23.97887       26.06969       23.01900        0.417
       13.86928       16.27078       23.86825       -0.834
       14.61340       16.85746       24.00364        0.417
       13.39480       16.65158       23.12927        0.417
       21.92317       20.97849       26.34150       -0.834
       21.99817       20.62001       27.22586        0.417
       21.00399       20.84970       26.10750        0.417
       17.35031       27.39413       26.73127       -0.834
       17.49515       27.71941       27.61977        0.417
       18.19117       27.51693       26.29069        0.417
        4.76710        8.92247       16.96982       -0.834
        5.21938        8.66044       17.77170        0.417
        3.96535        9.34746       17.27444        0.417
       13.99976       19.64763       26.23496       -0.834
       13.33081       20.08537       25.70853        0.417
       14.43433       19.05240       25.62416        0.417
       25.28681       21.86860       22.35979       -0.834
       24.74882       21.30386       22.91465        0.417
       25.82660       22.36531       22.97472        0.417
       14.66720        6.98583       26.07821       -0.834
       14.11336        6.83052       26.84331        0.417
       15.56161        6.94004       26.41612        0.417
        8.39298       22.74325        7.02398       -0.834
        7.97668       21.98779        7.43896        0.417
        7.98676       23.50165        7.44355        0.417
       25.43027       15.78247       16.74510       -0.834
       24.95312       16.56967       16.48263        0.417
       24.74853       15.12771       16.89592        0.417
       20.57874       10.41136       10.23992       -0.834
       20.69676       10.82904        9.38678        0.417
       20.27194        9.52826       10.03439        0.417
       11.94097       29.22111       17.54789       -0.834
       12.79850       29.26268       17.97116        0.417
       11.85043       30.06521       17.10571        0.417
       20.62871       26.41012       18.91038       -0.834
       20.13123       25.70992       19.33285        0.417
       21.54327       26.20663       19.10632        0.417
       18.65128       15.22951        8.08319       -0.834
       18.63703       14.37256        7.65697        0.417
       19.54146       15.31271        8.42510        0.417
       29.30979       13.37694       13.96265       -0.834
       28.97871       12.72869       13.34105        0.417
       28.53152       13.85623       14.24691        0.417
       23.88945        7.37050       17.90699       -0.834
       24.78286        7.11501       17.67726        0.417
       23.33298        6.80966       17.36659        0.417
       16.33371        7.99873       15.60339       -0.834
       15.97616        8.87092       15.76971        0.417
       15.89487        7.43411       16.23968        0.417
       26.88293       23.01652       24.56327       -0.834
       26.56810       23.09704       25.46362        0.417
       27.67463       22.48302       24.63268        0.417
       22.90549        7.29036       12.73799       -0.834
       22.07605        7.46696       13.18193        0.417
       22.70043        6.59349       12.11465        0.417
       23.37236       26.18879       19.26996       -0.834
       23.47852       25.43165       19.84591        0.417
       23.91877       25.99033       18.50951        0.417
       19.77203        4.43140       11.54759       -0.834
       19.38837        4.71162       12.37856        0.417
       19.48570        5.09153       10.91634        0.417
       30.25601       13.92208       18.91631       -0.834
       29.41082       14.34833       18.77418        0.417
       30.67216       14.43848       19.60651        0.417
       12.17149       27.17792        8.08223       -0.834
       12.26007       26.25815        7.83241        0.417
       11.49546       27.52125        7.49798        0.417
       16.91274       24.13441        7.33596       -0.834
       16.57837       23.26519        7.11488        0.417
       16.30373       24.46501        7.99629        0.417
       19.36612       27.90809       14.06375       -0.834
       18.45513       27.71729       13.84033        0.417
       19.87105       27.23420       13.60862        0.417
       13.92108       21.23511       23.12219       -0.834
       13.91811       22.06002       22.63665        0.417
       14.69223       21.29154       23.68644        0.417
        9.17498       16.56703       20.35088       -0.834
        9.69728       16.34398       21.12139        0.417
        9.09216       15.74330       19.87043        0.417
       16.69797       16.35027        6.62508       -0.834
       15.83002       15.98207        6.79037        0.417
       17.28374       15.84738        7.19095        0.417
        4.08077       14.94116       21.72429       -0.834
        4.08808       14.27742       21.03463        0.417
        4.96523       15.30700       21.71468        0.417
       14.09008       26.85732       15.75421       -0.834
       13.62419       27.33376       15.06706        0.417
       14.83254       27.41966       15.97503        0.417
       20.29233       23.56465       14.12789       -0.834
       20.09357       22.80792       14.67932        0.417
       20.93269       23.23905       13.49530        0.417
       10.61265        9.95318       18.79129       -0.834
       11.07297       10.12826       17.97051        0.417
       11.20671       10.26969       19.47184        0.417
       19.07263        7.31013       16.02988       -0.834
       18.25874        7.79654       16.16109        0.417
       19.47337        7.27413       16.89841        0.417
       19.83144       26.35251       26.05024       -0.834
       20.78835       26.35537       26.02717        0.417
       19.60820       25.64994       26.66081        0.417
       22.48040       14.75866       27.87832       -0.834
       22.60901       14.04433       27.25430        0.417
       22.95667       15.49729       27.49910        0.417
       26.06598        9.22836       20.00451       -0.834
       25.18176        9.10275       19.66013        0.417
       26.23770       10.16302       19.88974        0.417
       11.63358       19.21445       22.16041       -0.834
       12.38894       19.74426       22.41532        0.417
       11.02542       19.29438       22.89524        0.417
       14.50665       25.83844       18.17702       -0.834
       14.47119       26.11762       17.26213        0.417
       14.74783       24.91302       18.13636        0.417
       13.65419        4.07360       18.93511       -0.834
       14.13151        4.76158       18.47134        0.417
       14.30509        3.38741       19.08241        0.417
       24.19361       18.45719       15.97618       -0.834
       23.67877       19.26410       15.98428        0.417
       25.06710       18.72698       16.25984        0.417
       17.14366        3.38954       15.93636       -0.834
       17.06694        2.50545       16.29513        0.417
       17.74550        3.83817       16.53028        0.417
       30.30337       17.01968       13.08676       -0.834
       31.23063       16.81270       13.20325        0.417
       29.96275       17.10474       13.97725        0.417
       24.11968       25.79404       16.65969       -0.834
       24.46384       26.58137       16.23790        0.417
       23.19588       25.77230       16.40996        0.417
       10.63667       10.96012       10.88372       -0.834
       11.05671       11.73258       10.50542        0.417
       11.29402       10.26841       10.80843        0.417
       18.25433       29.61228       11.81805       -0.834
       18.36474       29.45388       10.88052        0.417
       18.97277       29.13140       12.22893        0.417
       14.05535       11.78281       24.30489       -0.834
       14.18964       10.85830       24.09638        0.417
       14.23166       12.24209       23.48378        0.417
       15.36441       14.54913       28.79845       -0.834
       14.50449       14.19499       29.02508        0.417
       15.93803       14.25874       29.50757        0.417
       18.68943       21.11438        6.36483       -0.834
       17.80504       21.00128        6.71309        0.417
       18.70656       22.01506        6.04124        0.417
        8.99369       15.77459       26.11560       -0.834
        9.92801       15.70311       26.31099        0.417
        8.67739       14.87118       26.12196        0.417
       15.40756       29.24115       21.82354       -0.834
       15.36760       28.52299       21.19197        0.417
       14.49205       29.43480       22.02500        0.417
       18.86186       15.23804        3.08538       -0.834
       18.21663       15.00809        2.41678        0.417
       18.46402       15.96633        3.56241        0.417
       12.71153       16.74966       21.49692       -0.834
       12.11038       16.02300       21.33314        0.417
       12.15185       17.52610       21.50887        0.417
        3.33626       21.81921       20.62163       -0.834
        3.80456       21.69631       21.44735        0.417
        3.48488       22.73745       20.39582        0.417
       23.46335       12.09133        6.56741       -0.834
       24.07367       12.24127        7.28939        0.417
       23.81777       11.33023        6.10768        0.417
       22.22905       21.06368       18.94134       -0.834
       22.19351       21.35583       19.85218        0.417
       21.36025       20.69930       18.77212        0.417
        8.02850        6.79830       17.73728       -0.834
        7.17194        7.17700       17.93505        0.417
        8.12228        6.89854       16.78997        0.417
       15.98706        7.56172        6.00669       -0.834
       16.49526        7.24606        6.75390        0.417
       15.82169        6.77902        5.48108        0.417
       10.10425       22.24921        4.60178       -0.834
        9.67470       22.76876        5.28133        0.417
       10.15379       21.36690        4.96963        0.417
       15.20678       23.30765       16.79700       -0.834
       15.47241       23.36347       15.87909        0.417
       14.55345       22.60833       16.81566        0.417
       10.50763       20.40183        8.70333       -0.834
       11.16917       20.03515        9.28997        0.417
       10.70848       21.33712        8.66987        0.417
       22.79228       28.90803       19.96379       -0.834
       22.24207       28.89262       20.74691        0.417
       22.79161       28.00297       19.65218        0.417
       17.11261       30.62307       14.91254       -0.834
       17.71657       31.36034       14.82367        0.417
       17.25838       30.09728       14.12608        0.417
        7.59336       12.76088        8.01715       -0.834
        8.40653       12.95533        7.55113        0.417
        6.99307       13.45833        7.75363        0.417
       22.06679       17.09156       11.98446       -0.834
       22.84261       17.23628       11.44281        0.417
       21.82150       17.96471       12.29051        0.417
       13.28804       24.30075        8.17566       -0.834
       12.70390       24.24835        8.93214        0.417
       12.94439       23.65179        7.56167        0.417
       22.63296       15.87212       20.77496       -0.834
       22.70802       16.16673       21.68260        0.417
       23.41233       16.22256       20.34367        0.417
        8.91995       13.31744       20.11076       -0.834
        8.15168       12.74805       20.15317        0.417
        8.79254       13.83351       19.31473        0.417
       21.19512       30.50747       15.31354       -0.834
       20.98187       30.50685       14.38040        0.417
       20.64223       29.82087       15.68653        0.417
        9.13263       19.84170       13.21206       -0.834
        8.43013       19.80550       12.56289        0.417
        8.68767       19.73817       14.05321        0.417
       13.36363        7.66374        7.09393       -0.834
       13.40387        7.51130        8.03806        0.417
       14.27930        7.71718        6.82022        0.417
       17.42420       31.06826       21.45163       -0.834
       16.61406       30.61299       21.68107        0.417
       17.95447       30.40591       21.00852        0.417
       26.78026       19.93247       17.33026       -0.834
       26.32215       20.15207       18.14152        0.417
       27.47214       20.59017       17.25977        0.417
       24.32880       16.71568       26.66122       -0.834
       24.48774       16.65718       25.71912        0.417
       25.18948       16.58291       27.05850        0.417
       17.08342       22.02777       10.48968       -0.834
       17.88043       22.51190       10.27379        0.417
       17.39558       21.22890       10.91466        0.417