%Nproc=32
%Mem=120Gb
%chk=temp.chk
#p cam-b3lyp/6-31+G(d,p) nosymm charge Freq 

Calculation for S0 with freq for abs spect

0  1
 C         15.67001       17.52951       16.07990
 C         17.29263       15.73382       15.50664
 C         17.69386       15.59301       16.75284
 C         17.02629       16.30618       17.76575
 N         16.02668       17.20797       17.42578
 H         17.67125       15.12497       14.63812
 H         18.45954       14.96849       17.03646
 O         17.17321       16.07324       18.97937
 O         14.84122       18.33227       15.79511
 N         16.36929       16.69331       15.18925
 H         15.95504       16.77448       14.32139
 H         15.50575       17.72944       18.15479
 O         16.33036       21.29168       19.07704
 H         16.93503       20.55222       19.13863
 H         16.86712       22.01411       18.75113
 O         21.73572       15.43080       16.17785
 H         22.55399       15.01373       15.90819
 H         21.23931       15.53269       15.36580
 O         17.72563       13.67259       13.71445
 H         16.79097       13.64713       13.50953
 H         17.88171       12.87650       14.22249
 O         15.15001       17.88109       20.99405
 H         14.49212       18.18737       20.36987
 H         15.34840       16.98739       20.71444
 O         19.36179       20.01736       18.48598
 H         18.94350       19.41012       19.09634
 H         20.04891       19.50006       18.06586
 O         18.51706       17.70931       11.36098
 H         18.68611       16.79008       11.56754
 H         18.02748       18.03855       12.11474
 O         18.34523       15.20859       20.11696
 H         19.13953       15.43518       19.63326
 H         17.82465       14.69726       19.49748
 O         13.24842       17.20262       16.38386
 H         13.72534       16.96778       15.58785
 H         12.86616       16.37887       16.68643
 O         14.76545       13.90964       13.31923
 H         14.54884       14.34794       14.14216
 H         14.09608       13.23195       13.22485
 O         13.85855       18.52112       18.76129
 H         12.94659       18.78180       18.63240
 H         14.21217       18.43909       17.87559
 O         20.29293       16.63386       14.15806
 H         19.94787       16.07828       13.45913
 H         19.53845       17.14280       14.45464
 O         17.60566       18.85653       20.59052
 H         18.18889       19.24107       21.24490
 H         16.80037       18.66355       21.07063
 O         12.23293       19.66418       15.05623
 H         12.31596       18.86905       15.58264
 H         13.01962       19.67428       14.51102
 O         13.15082       13.44844       16.99914
 H         14.07950       13.62895       16.85352
 H         13.07605       13.32373       17.94523
 O         14.48960       15.31030       19.85522
 H         14.99259       14.63865       20.31578
 H         13.67220       15.37849       20.34861
 O         17.19220       12.98721       18.65730
 H         16.47684       12.74714       19.24624
 H         16.75635       13.27470       17.85504
 O         15.56453       19.34020       12.74089
 H         15.52286       19.94240       11.99803
 H         15.58197       19.90920       13.51041
 O         20.67149       15.85549       18.80977
 H         21.02612       15.61780       17.95305
 H         20.84483       16.79349       18.88942
 O         15.37991       20.81076       15.20960
 H         16.28196       21.12898       15.17391
 H         14.94861       21.38267       15.84453
 O         21.36963       18.14775       17.28130
 H         22.32478       18.15541       17.21919
 H         21.09901       17.41518       16.72782
 O         19.99774       12.36856       17.80250
 H         19.22407       12.74396       17.38210
 H         19.67694       11.57472       18.23043
 O         14.29371       16.84696       13.97524
 H         14.84091       17.58419       13.70453
 H         13.94619       16.49274       13.15671
 
       17.53154       17.01446       25.34894       -0.834
       17.52901       17.75416       24.74143        0.417
       18.14023       16.38647       24.95989        0.417
       22.02434       10.66106       16.58401       -0.834
       22.52881       11.27138       16.04620        0.417
       21.21543       11.13128       16.78599        0.417
       22.57794       12.26399        7.78473       -0.834
       22.06933       11.53871        7.42207        0.417
       22.98616       11.90133        8.57090        0.417
       19.29469       26.82180       15.85426       -0.834
       18.81980       27.28446       16.54466        0.417
       19.97280       26.33005       16.31749        0.417
       29.19692       20.79688       21.88400       -0.834
       29.63569       21.49820       21.40248        0.417
       29.62647       20.78789       22.73936        0.417
       17.73577       27.65965       23.38904       -0.834
       18.48927       27.31649       22.90871        0.417
       17.71595       27.15094       24.19963        0.417
       20.90298       10.13797       22.16567       -0.834
       20.04423       10.04117       22.57725        0.417
       20.71799       10.53660       21.31532        0.417
       21.36789        9.64830       28.23778       -0.834
       22.04999        9.48987       27.58519        0.417
       21.74091        9.32542       29.05805        0.417
        7.38458       11.57181       26.60661       -0.834
        7.72081       12.02147       27.38185        0.417
        6.55879       12.01479       26.41151        0.417
       20.02828       24.67222        6.11888       -0.834
       19.59884       24.59518        5.26689        0.417
       19.36883       24.37853        6.74745        0.417
       24.59248       10.64939       20.59363       -0.834
       24.13722       11.11901       19.89475        0.417
       24.71367        9.76469       20.24890        0.417
       13.72825       22.06315        5.91106       -0.834
       13.61314       22.21244        4.97261        0.417
       13.93462       21.13117        5.98226        0.417
       10.14407       22.67456       22.99655       -0.834
       10.19667       22.84376       23.93720        0.417
       10.56202       21.82101       22.88250        0.417
       23.16849       14.57505       25.90714       -0.834
       23.59750       13.72497       25.80953        0.417
       22.59048       14.46686       26.66241        0.417
       23.51928       29.68170       21.89370       -0.834
       23.85493       30.29810       21.24286        0.417
       23.77848       28.82086       21.56508        0.417
       12.05703       28.85111        9.27052       -0.834
       12.56041       28.72491       10.07484        0.417
       12.70554       29.12533        8.62208        0.417
       16.21394       26.79040       26.21288       -0.834
       17.04027       26.51329       26.60864        0.417
       15.94578       27.55262       26.72604        0.417
       14.66750       29.11662       14.08161       -0.834
       15.21935       28.40960       14.41600        0.417
       15.28518       29.75493       13.72487        0.417
        8.46702       13.02230       28.56986       -0.834
        9.11566       13.29135       29.22032        0.417
        7.62464       13.13424       29.01042        0.417
        8.62417       16.49147        4.49301       -0.834
        8.06529       16.77184        3.76825        0.417
        8.01985       16.35253        5.22221        0.417
        7.66931       23.15193       21.15197       -0.834
        8.21787       23.00907       21.92326        0.417
        7.62659       24.10382       21.06083        0.417
       20.09251       29.45054       19.04437       -0.834
       20.45224       28.56386       19.01935        0.417
       20.82537       29.99904       19.32418        0.417
       22.57974       22.43756        4.92352       -0.834
       22.84055       21.52143        4.82907        0.417
       22.10481       22.63630        4.11656        0.417
       12.82866        3.70550       22.23797       -0.834
       12.00299        4.16391       22.39403        0.417
       12.57254        2.88924       21.80861        0.417
       26.15670       10.40944       16.08469       -0.834
       25.55300        9.95739       16.67411        0.417
       26.13038       11.32314       16.36875        0.417
       10.64129        7.57114       13.90315       -0.834
       10.69940        6.88652       13.23671        0.417
       11.34998        7.37144       14.51479        0.417
       18.58505       31.86373       13.13293       -0.834
       17.92100       32.55220       13.09743        0.417
       18.08660       31.04739       13.09586        0.417
       22.89007       15.88166       23.64597       -0.834
       23.80222       16.08695       23.44084        0.417
       22.92921       15.43243       24.49030        0.417
        9.25230       25.85299       24.75293       -0.834
        9.57606       25.30886       25.47080        0.417
        9.09287       26.70791       25.15285        0.417
       12.90486       10.76380       17.62908       -0.834
       12.56252        9.90830       17.36993        0.417
       12.36137       11.39334       17.15525        0.417
       11.22045       18.64505       18.25279       -0.834
       10.71484       17.89808       18.57314        0.417
       10.62060       19.10766       17.66764        0.417
       24.22281       23.99505       22.90192       -0.834
       25.10217       24.08258       22.53409        0.417
       24.19841       23.10632       23.25661        0.417
        4.37349       16.81946       13.84593       -0.834
        4.10699       17.73692       13.90488        0.417
        3.58977       16.36088       13.54307        0.417
       26.07712        9.51077       10.34122       -0.834
       26.03177        9.02676        9.51665        0.417
       26.93447        9.28758       10.70367        0.417
       14.26914       18.73550        2.72612       -0.834
       13.92644       18.60504        3.61030        0.417
       13.51773       19.04586        2.22087        0.417
       12.70899       28.64669       12.18009       -0.834
       13.54338       28.52646       12.63349        0.417
       12.25108       29.31280       12.69278        0.417
       25.85079       18.70369       15.30909       -0.834
       25.28316       19.38771       14.95394        0.417
       26.24834       18.29779       14.53874        0.417
       18.45915       21.73537       14.74817       -0.834
       18.96724       22.39871       15.21514        0.417
       18.95652       20.92591       14.86492        0.417
       22.20986       11.01902       11.06926       -0.834
       22.23491       10.06414       11.13087        0.417
       21.39866       11.26693       11.51280        0.417
       30.14848       16.48165       16.91332       -0.834
       30.32916       16.17767       17.80281        0.417
       29.30975       16.93787       16.98134        0.417
        7.19865       19.29129        5.70340       -0.834
        7.79571       19.68346        6.34055        0.417
        6.99847       18.42688        6.06250        0.417
       18.27743       13.71322       27.88685       -0.834
       18.47501       12.99548       28.48855        0.417
       18.50324       13.37049       27.02211        0.417
       13.91389        5.24284       26.60492       -0.834
       13.48833        4.38584       26.63120        0.417
       13.27930        5.81269       26.17042        0.417
       22.51962       18.72159       22.13972       -0.834
       23.07272       18.41105       21.42288        0.417
       22.58143       18.03601       22.80485        0.417
       18.66454       13.15700       22.76189       -0.834
       17.94473       13.71749       22.47213        0.417
       19.29868       13.76116       23.14801        0.417
       17.94915       26.16863       11.48007       -0.834
       17.83360       25.66777       12.28755        0.417
       18.14417       27.05807       11.77519        0.417
       17.35259       14.92149        3.47864       -0.834
       18.19624       14.62235        3.81777        0.417
       17.57790       15.48989        2.74217        0.417
       16.11008       24.62611       15.50254       -0.834
       15.16402       24.48768       15.45754        0.417
       16.20670       25.50989       15.85727        0.417
       23.28106        2.83919       16.14460       -0.834
       22.66526        2.76423       15.41563        0.417
       23.60626        3.73796       16.09258        0.417
        6.65069       11.30687       18.06890       -0.834
        6.86716       11.19425       17.14332        0.417
        7.22891       10.69660       18.52657        0.417
        8.47368       17.67704       29.02397       -0.834
        9.17810       17.82027       28.39190        0.417
        8.92020       17.59650       29.86680        0.417
       18.09612       24.95049       13.83234       -0.834
       17.58686       24.77641       14.62391        0.417
       19.00360       24.78892       14.09044        0.417
       18.71791        6.68035       22.03186       -0.834
       18.36812        7.28074       21.37353        0.417
       19.50210        6.31019       21.62656        0.417
       10.30648       28.12211       16.64437       -0.834
        9.63738       28.47932       16.06047        0.417
       11.02370       28.75465       16.60288        0.417
       16.60281       27.78209       20.10143       -0.834
       16.58132       27.08603       20.75814        0.417
       15.68196       27.98344       19.93491        0.417
       29.18718        7.22975       14.43794       -0.834
       28.70940        6.98588       13.64517        0.417
       28.72402        7.99868       14.77030        0.417
       17.49920       24.54468        7.34201       -0.834
       17.33638       25.47318        7.17586        0.417
       17.23612       24.41417        8.25305        0.417
       11.75700       20.07620       22.45181       -0.834
       12.31583       20.63141       22.99558        0.417
       12.10338       20.18163       21.56575        0.417
       12.39570        6.08275        7.63388       -0.834
       12.30092        5.47539        6.90015        0.417
       13.33049        6.28737        7.65684        0.417
       10.17436       12.29455        9.73769       -0.834
        9.85847       12.36353       10.63863        0.417
       10.97233       12.82298        9.72205        0.417
       13.08308       24.56466        6.78175       -0.834
       13.45881       23.74244        6.46709        0.417
       12.19756       24.33242        7.06129        0.417
       19.33086       23.26096       27.97151       -0.834
       20.01944       22.94799       27.38488        0.417
       19.73737       23.26501       28.83809        0.417
        7.74387       20.07035       25.45201       -0.834
        8.52883       19.73639       25.88622        0.417
        7.72828       19.62209       24.60640        0.417
        6.24592        7.90434       18.62116       -0.834
        6.08884        7.00956       18.31961        0.417
        5.37338        8.29267       18.68520        0.417
       12.93214       24.32037       19.12125       -0.834
       12.16322       23.78832       19.32598        0.417
       12.58603       25.06039       18.62246        0.417
        5.76164       16.27326       27.71392       -0.834
        6.65813       16.40860       28.02087        0.417
        5.76620       16.59243       26.81151        0.417
       26.88649       25.95446        9.90168       -0.834
       26.08668       25.77452        9.40755        0.417
       26.76450       26.84109       10.24115        0.417
       24.03062        8.09879        6.61914       -0.834
       23.27496        7.66754        7.01819        0.417
       24.73758        7.97953        7.25334        0.417
       28.20544       14.74602       10.24391       -0.834
       29.09191       14.42894       10.41671        0.417
       28.27494       15.69866       10.30613        0.417
       16.45188       27.26013       15.64095       -0.834
       16.70587       27.52795       16.52412        0.417
       17.27345       27.24186       15.15011        0.417
        7.33282       12.79777       13.12996       -0.834
        7.48417       13.63737       12.69592        0.417
        7.38402       12.15108       12.42611        0.417
       10.88553       26.55341       12.96243       -0.834
       10.40246       27.12267       12.36342        0.417
       11.60571       27.09709       13.28180        0.417
       20.74738       16.29967       26.50327       -0.834
       21.34457       16.92195       26.91843        0.417
       20.15373       16.03215       27.20487        0.417
       11.43038       19.31952        6.94390       -0.834
       10.61512       19.72154        7.24384        0.417
       11.56355       18.57782        7.53414        0.417
       16.87989       22.54569       12.60067       -0.834
       16.82183       23.47090       12.83912        0.417
       17.35353       22.13998       13.32683        0.417
       25.58963        6.36419       10.33290       -0.834
       25.86506        6.57079        9.43977        0.417
       24.74513        5.92588       10.22828        0.417
       15.70660       23.12207       24.35605       -0.834
       15.87638       23.23751       23.42113        0.417
       15.24989       23.92162       24.61754        0.417
        3.82019       17.16984       20.74245       -0.834
        4.59282       17.50836       20.29004        0.417
        4.12683       16.37528       21.17934        0.417
        3.32644       20.07921       22.54667       -0.834
        3.23151       20.42785       23.43305        0.417
        4.15892       19.60701       22.56240        0.417
       10.91860       11.57995       23.68682       -0.834
       10.37233       11.75667       22.92092        0.417
       10.29522       11.38217       24.38574        0.417
       14.21935        3.89252       19.38337       -0.834
       14.53350        3.39764       20.14010        0.417
       13.30127        4.07704       19.58161        0.417
       15.37931        8.16362       29.44824       -0.834
       14.59298        7.71921       29.13134        0.417
       15.86369        8.38968       28.65420        0.417
       18.24949       23.81438       18.99038       -0.834
       18.15541       24.71637       18.68410        0.417
       18.89269       23.42553       18.39766        0.417
       11.20885       12.91766       15.10440       -0.834
       11.53693       13.52537       14.44161        0.417
       11.69441       13.14298       15.89793        0.417
       10.44885       19.29562       27.21213       -0.834
       10.00323       20.13619       27.31749        0.417
       11.36667       19.52680       27.06938        0.417
       24.02575       17.76819       10.91349       -0.834
       24.82954       17.80905       10.39535        0.417
       23.34307       18.08659       10.32290        0.417
       14.57607       30.36810       17.94619       -0.834
       14.34256       31.13838       18.46425        0.417
       15.39249       30.61105       17.50955        0.417
       23.30520       23.14390       15.89694       -0.834
       23.81531       22.74577       16.60229        0.417
       23.71349       22.82092       15.09369        0.417
       13.75645       12.29826       30.05016       -0.834
       13.34330       11.91321       30.82300        0.417
       13.79687       13.23529       30.24140        0.417
        6.00850       19.86817        9.27042       -0.834
        5.29923       19.81751        8.62964        0.417
        5.86464       20.69958        9.72241        0.417
        7.66723       18.69194       11.55381       -0.834
        7.48866       18.24117       12.37914        0.417
        7.02002       19.39637       11.52018        0.417
       16.80146       25.31568       21.90663       -0.834
       16.54153       25.99553       22.52829        0.417
       16.04113       24.73672       21.85236        0.417
       21.83770        7.58232       15.44150       -0.834
       21.32237        7.26617       14.69939        0.417
       21.47803        8.44875       15.63169        0.417
       25.20338        5.88548       18.43467       -0.834
       26.11065        5.58070       18.44878        0.417
       24.87759        5.62943       17.57181        0.417
       10.71176       12.55402       26.79388       -0.834
       10.00508       12.70388       27.42188        0.417
       11.12656       11.74319       27.08835        0.417
        5.56105       11.46067       22.29881       -0.834
        5.79972       12.17980       22.88372        0.417
        5.18969       10.79426       22.87694        0.417
       11.95869       17.00995        8.63538       -0.834
       11.86856       16.05790        8.59406        0.417
       12.89750       17.15738        8.74996        0.417
       23.71700       25.74209       14.30956       -0.834
       23.76550       25.47450       15.22732        0.417
       24.20589       25.06837       13.83699        0.417
       14.64731       23.68700       21.40813       -0.834
       14.27301       23.99766       20.58374        0.417
       14.56522       22.73431       21.36506        0.417
       19.83469       13.76036        4.66194       -0.834
       20.52197       14.10396        5.23274        0.417
       20.24543       13.70342        3.79922        0.417
        6.91943       24.82774       11.78306       -0.834
        6.28238       24.69353       12.48477        0.417
        7.15885       23.94396       11.50404        0.417
       21.78134        4.81692       22.00873       -0.834
       22.49039        4.42187       21.50138        0.417
       21.37487        5.44104       21.40750        0.417
       29.56684       20.79866       14.27216       -0.834
       30.05725       20.69366       15.08745        0.417
       29.14044       21.65146       14.35672        0.417
       21.93201       19.13194        9.10476       -0.834
       21.45167       19.81433        8.63587        0.417
       21.36853       18.90748        9.84525        0.417
       18.70782       14.90907       11.45638       -0.834
       18.50270       14.30184       12.16731        0.417
       19.41427       14.48175       10.97208        0.417
       14.45371        6.22450       17.24898       -0.834
       15.16385        6.29979       17.88637        0.417
       13.68931        5.97737       17.76942        0.417
       23.92386       20.15697       13.85939       -0.834
       23.74855       20.50295       12.98430        0.417
       23.49418       19.30169       13.86983        0.417
       16.96832       29.62152       12.43198       -0.834
       16.53919       29.89900       11.62260        0.417
       17.71416       29.09709       12.14056        0.417
       29.84452       11.82257       13.52188       -0.834
       29.91811       10.89781       13.28603        0.417
       29.91604       12.28906       12.68911        0.417
       12.37622       17.91829       29.91854       -0.834
       12.39389       18.81907       30.24182        0.417
       13.12235       17.86292       29.32149        0.417
       17.59878       19.38632       30.78638       -0.834
       17.74784       19.57346       31.71320        0.417
       18.47334       19.23278       30.42888        0.417
       15.33626       12.64617       20.42872       -0.834
       15.41539       12.87229       21.35546        0.417
       14.48225       12.21972       20.35781        0.417
       19.45122        3.28443       22.42815       -0.834
       19.12487        3.69337       23.22970        0.417
       20.40381        3.34822       22.49686        0.417
       24.33073       28.30214       13.83088       -0.834
       23.79742       28.77475       14.46997        0.417
       24.24617       27.38213       14.08121        0.417
        7.73427       11.35969       15.55607       -0.834
        7.90470       11.84371       14.74803        0.417
        7.73724       10.44017       15.29018        0.417
       17.26079       13.26003        6.37631       -0.834
       16.85696       13.82913        5.72112        0.417
       16.85080       12.40621        6.23798        0.417
       11.70027       11.06532        6.75522       -0.834
       11.27448       10.53739        6.07978        0.417
       11.27703       10.79799        7.57108        0.417
       17.90415        6.30923        5.33830       -0.834
       18.58114        5.70914        5.02556        0.417
       18.36480        6.90246        5.93170        0.417
       23.28586       11.50872       13.57690       -0.834
       23.90382       10.80846       13.36714        0.417
       22.60177       11.43231       12.91175        0.417
       18.20589        6.99238       24.55165       -0.834
       17.59043        6.35612       24.91582        0.417
       18.44793        6.63121       23.69889        0.417
       24.29302        3.63613       13.33833       -0.834
       23.84599        4.48179       13.30298        0.417
       23.59717        2.99132       13.21091        0.417
       23.05539       27.00654        7.85806       -0.834
       23.65105       26.29779        7.61496        0.417
       23.06997       27.60036        7.10746        0.417
       13.14663       16.79426       11.62291       -0.834
       13.35893       16.95972       10.70433        0.417
       12.22787       17.04942       11.70660        0.417
        8.73611       13.69739       16.41782       -0.834
        8.35408       12.82200       16.35478        0.417
        9.41016       13.71457       15.73842        0.417
       17.96828       16.37668       29.52400       -0.834
       17.85758       17.13228       28.94689        0.417
       17.89700       15.61889       28.94356        0.417
       10.19117       11.63364       20.22015       -0.834
        9.72648       11.84294       19.40991        0.417
        9.50681       11.60504       20.88877        0.417
       19.85042       18.89139        3.26378       -0.834
       19.18901       18.20147        3.31649        0.417
       19.62516       19.49442        3.97220        0.417
       18.53186        9.58437       23.67965       -0.834
       17.68930       10.02062       23.80622        0.417
       18.41326        8.71667       24.06598        0.417
       25.20216       13.97921       28.72407       -0.834
       24.48301       14.49779       29.08481        0.417
       25.63414       14.56666       28.10397        0.417
       26.59887       15.79931       17.30334       -0.834
       27.06617       16.62460       17.43284        0.417
       26.82625       15.53196       16.41280        0.417
       25.23702        6.93036       14.20348       -0.834
       26.18149        6.77638       14.18090        0.417
       25.11695        7.75481       13.73221        0.417
       26.90604       24.54855       22.33091       -0.834
       27.84609       24.48688       22.16136        0.417
       26.83838       25.10078       23.10981        0.417
       12.63487       24.29227       26.48485       -0.834
       12.96097       23.98913       25.63751        0.417
       12.92732       25.20183       26.54311        0.417
       17.71162       18.70518       27.59103       -0.834
       17.02547       19.37053       27.64352        0.417
       17.47300       18.17376       26.83150        0.417
       13.01246        8.57207        9.26824       -0.834
       12.10826        8.84935        9.41580        0.417
       12.93522        7.74205        8.79779        0.417
        6.20669       13.94059       23.49385       -0.834
        5.82802       13.67983       24.33339        0.417
        6.44887       14.85873       23.61464        0.417
       19.64027       29.55287        8.92899       -0.834
       20.03302       28.68091        8.96989        0.417
       19.76968       29.91570        9.80526        0.417
       10.68788        5.19298       12.54246       -0.834
        9.81952        4.99083       12.89079        0.417
       10.58837        5.12103       11.59317        0.417
       15.99864       10.29804       24.09965       -0.834
       15.71897       10.92950       23.43687        0.417
       15.34094        9.60359       24.06214        0.417
       10.49102       24.61531        8.12402       -0.834
       11.00550       24.89261        8.88208        0.417
        9.85506       25.31901        7.99519        0.417
       10.34845        9.44816        9.47449       -0.834
        9.59276        8.93436        9.75941        0.417
       10.16191       10.33709        9.77655        0.417
       17.68657       20.42009        8.37280       -0.834
       18.13236       19.61058        8.12342        0.417
       16.76578       20.17165        8.45440        0.417
       11.19856        4.38572       18.57058       -0.834
       10.97229        4.54313       17.65393        0.417
       10.35515        4.28867       19.01270        0.417
       25.76376       21.92108        6.21309       -0.834
       25.63158       20.99039        6.03260        0.417
       25.38643       22.36840        5.45562        0.417
       30.56620       14.93209       11.87641       -0.834
       31.50162       14.73227       11.84022        0.417
       30.48035       15.54803       12.60406        0.417
       10.10961       23.39752       25.91671       -0.834
       10.74898       23.88936       26.43200        0.417
        9.99053       22.57955       26.39939        0.417
        5.83124       13.82739       19.38726       -0.834
        6.28678       12.99868       19.23907        0.417