%Nproc=32
%Mem=120Gb
%chk=temp.chk
#p cam-b3lyp/6-31+G(d,p) nosymm charge Freq 

Calculation for S0 with freq for abs spect

0  1
 C         15.67001       17.52951       16.07990
 C         17.29263       15.73382       15.50664
 C         17.69386       15.59301       16.75284
 C         17.02629       16.30618       17.76575
 N         16.02668       17.20797       17.42578
 H         17.67125       15.12497       14.63812
 H         18.45954       14.96849       17.03646
 O         17.17321       16.07324       18.97937
 O         14.84122       18.33227       15.79511
 N         16.36929       16.69331       15.18925
 H         15.95504       16.77448       14.32139
 H         15.50575       17.72944       18.15479
 O         14.98610       17.24769       20.24806
 H         15.44865       18.02652       19.93870
 H         15.62615       16.78865       20.79197
 O         19.98526       19.65316       15.54820
 H         20.45274       20.13501       16.23048
 H         19.15848       19.39849       15.95785
 O         19.80863       12.82729       16.36442
 H         19.08918       12.25166       16.10508
 H         19.86826       13.47021       15.65778
 O         17.68936       16.01638       13.24522
 H         17.87885       16.95449       13.26232
 H         16.88950       15.94257       12.72465
 O         16.43996       19.30863       19.43805
 H         15.77804       19.98256       19.28340
 H         16.98993       19.32821       18.65486
 O         19.54517       14.65516       20.08543
 H         20.44161       14.32032       20.10815
 H         19.63181       15.55104       19.75967
 O         19.56159       14.04024       14.04972
 H         19.08818       13.28375       13.70354
 H         18.95572       14.77316       13.94023
 O         12.62694       14.13639       14.21897
 H         12.86723       14.97104       14.62127
 H         13.46016       13.75388       13.94389
 O         12.47192       16.63532       19.18190
 H         12.02705       16.11595       19.85166
 H         13.20183       17.04790       19.64367
 O         13.60356       12.41890       19.15898
 H         13.63172       11.56744       18.72258
 H         13.50300       13.05042       18.44673
 O         18.33368       18.95780       13.16429
 H         17.54915       19.50612       13.17312
 H         18.77140       19.15180       13.99314
 O         14.17632       19.55848       14.91938
 H         13.26326       19.27369       14.88129
 H         14.13279       20.46327       15.22872
 O         20.13128       17.01108       18.84660
 H         20.91638       16.99707       18.29919
 H         20.30920       17.68351       19.50419
 O         17.39235       12.65699       19.77340
 H         16.62994       13.21243       19.61074
 H         18.09921       13.27148       19.97082
 O         15.33712       14.32978       20.00608
 H         14.71200       13.64456       19.76959
 H         14.97708       15.12736       19.61817
 O         15.92435       20.16275       12.88622
 H         15.28883       19.90620       13.55445
 H         16.33922       20.94985       13.23920
 O         12.73396       14.32417       17.59668
 H         11.90448       14.02365       17.22536
 H         12.51831       15.15116       18.02775
 
        2.73234       10.55792       13.09096       -0.834
        3.03117       10.35761       12.20394        0.417
        2.93705       11.48544       13.20944        0.417
       16.23364       25.84355       16.68262       -0.834
       17.15234       25.72440       16.92350        0.417
       15.96103       24.98981       16.34639        0.417
       22.73895        8.77009       20.31107       -0.834
       22.76344        9.50068       20.92902        0.417
       22.53103        9.17491       19.46897        0.417
       16.59060       10.50690       18.25036       -0.834
       16.71041        9.62549       18.60392        0.417
       17.14971       11.06170       18.79426        0.417
       12.36862       10.49302       29.19466       -0.834
       13.18425       10.29244       29.65372        0.417
       11.68944       10.05997       29.71177        0.417
       24.41702       24.33336       11.93668       -0.834
       24.93811       24.98037       12.41215        0.417
       24.95358       23.54073       11.94410        0.417
       20.86454       19.29497        6.55145       -0.834
       20.08270       19.02879        6.06760        0.417
       21.43646       19.68247        5.88889        0.417
       28.37523       19.23925        8.35235       -0.834
       29.17477       19.00059        8.82140        0.417
       27.66786       18.86709        8.87901        0.417
       30.21752       14.63533       16.22555       -0.834
       29.60435       15.21425       15.77267        0.417
       29.67455       13.91642       16.54893        0.417
       12.53195       19.11471       24.52931       -0.834
       13.14718       18.39851       24.68672        0.417
       12.14760       19.29389       25.38745        0.417
       21.84645       20.02966        4.29308       -0.834
       21.92117       19.67258        3.40813        0.417
       22.74717       20.22934        4.54814        0.417
        4.57047       18.73267       20.14663       -0.834
        5.18166       18.68602       19.41144        0.417
        4.12423       19.57207       20.03485        0.417
       28.98877       24.14713       15.16079       -0.834
       28.04151       24.14312       15.02327        0.417
       29.14077       24.87543       15.76304        0.417
       14.77111       10.76554       14.23085       -0.834
       14.14623       10.15438       13.84069        0.417
       14.55612       11.61173       13.83846        0.417
       23.23574       11.13625        5.92146       -0.834
       22.52739       11.40319        5.33562        0.417
       23.71146       11.94582        6.10726        0.417
       13.89851        7.58421       16.03833       -0.834
       13.35113        7.72828       15.26642        0.417
       13.54730        6.78766       16.43630        0.417
       14.02762       19.31892        4.86495       -0.834
       13.97884       18.53460        5.41148        0.417
       13.56174       19.98916        5.36490        0.417
       17.07225       11.52854       15.54791       -0.834
       16.66119       11.17388       16.33625        0.417
       16.45692       11.32420       14.84375        0.417
       26.34132       21.07904       21.89156       -0.834
       25.52903       20.61794       22.10084        0.417
       26.29306       21.23408       20.94823        0.417
        6.95997       14.65237       13.61360       -0.834
        6.29439       15.05699       13.05726        0.417
        7.60737       15.34322       13.75444        0.417
       13.47517        4.68565       15.00437       -0.834
       14.03508        4.80753       14.23763        0.417
       14.08202        4.66871       15.74441        0.417
        4.21322       20.17618       16.28992       -0.834
        4.13978       21.04523       15.89546        0.417
        4.13314       20.33220       17.23092        0.417
       14.08665        8.34451       24.69896       -0.834
       13.53457        8.18360       23.93375        0.417
       14.53749        7.51350       24.84864        0.417
       10.55326       12.45014       27.41282       -0.834
       10.02635       11.96829       28.05033        0.417
       11.31907       11.89501       27.26585        0.417
       17.89870        8.78427       20.50187       -0.834
       17.55000        7.90105       20.38118        0.417
       17.48483        9.09788       21.30598        0.417
        6.54308       19.81586       25.80664       -0.834
        5.61147       19.98608       25.94575        0.417
        6.97945       20.61644       26.09800        0.417
       24.18583       19.32116       22.67618       -0.834
       23.62149       19.06999       21.94498        0.417
       24.86184       18.64395       22.70122        0.417
       26.32789       18.03777       10.36091       -0.834
       25.67317       17.52192       10.83151        0.417
       27.07608       17.44813       10.26735        0.417
       16.17781       15.34376       22.42204       -0.834
       16.76008       14.78915       22.94128        0.417
       15.99263       14.82847       21.63692        0.417
        8.17956       21.06743       19.34594       -0.834
        7.23632       20.98176       19.48447        0.417
        8.56369       20.36247       19.86719        0.417
       18.72084       26.10404       20.91048       -0.834
       19.38513       25.89435       21.56697        0.417
       18.31959       26.91405       21.22531        0.417
        7.70901       14.39668       18.12950       -0.834
        6.94586       14.23764       17.57404        0.417
        7.70931       15.34327       18.27162        0.417
       17.77223        2.58726       23.73964       -0.834
       18.26179        1.89612       23.29369        0.417
       18.05415        3.39560       23.31146        0.417
       21.44386       19.19612       23.06896       -0.834
       22.30700       19.17691       23.48232        0.417
       21.07031       18.33429       23.25321        0.417
        9.33724       23.51276       19.89593       -0.834
        9.12082       22.75450       19.35333        0.417
        9.82858       23.14857       20.63226        0.417
       14.19819        9.43802        3.75870       -0.834
       14.72247        9.46461        4.55911        0.417
       13.56707       10.15032        3.86142        0.417
       23.55689       18.10371       20.05486       -0.834
       22.97602       18.18083       19.29798        0.417
       24.13842       17.37505       19.83782        0.417
       30.69432       22.56441       17.32141       -0.834
       30.43905       22.83886       18.20217        0.417
       30.08088       23.01630       16.74199        0.417
       11.15810       22.01005       16.32527       -0.834
       10.25783       22.30553       16.46101        0.417
       11.43785       21.69080       17.18320        0.417
        9.11014       16.26192       14.33209       -0.834
        9.95144       16.47764       14.73446        0.417
        9.23563       16.44452       13.40089        0.417
       22.17919       10.02419       17.89546       -0.834
       22.24718       10.95354       18.11436        0.417
       22.03374       10.01047       16.94948        0.417
       11.90883       10.92431       22.35441       -0.834
       11.71867       11.43157       21.56526        0.417
       11.52354       10.06448       22.18565        0.417
        6.42207       24.15254       19.64921       -0.834
        7.16182       23.79135       19.16080        0.417
        5.97734       23.38665       20.01233        0.417
       29.47132       15.68646       18.90728       -0.834
       29.46678       16.26310       18.14328        0.417
       30.13848       16.05801       19.48442        0.417
       29.40324       12.06872       17.13486       -0.834
       30.11868       11.43298       17.12032        0.417
       28.77075       11.73280       16.49977        0.417
        9.41770        5.32348       11.90481       -0.834
       10.00300        4.59376       11.70191        0.417
        9.52123        5.45945       12.84663        0.417
       13.05037       17.83787       12.19446       -0.834
       12.72834       18.17704       13.02962        0.417
       12.59950       17.00056       12.08560        0.417
       24.66192       23.02199       16.96587       -0.834
       24.50091       22.09732       16.77800        0.417
       24.54469       23.09845       17.91278        0.417
       12.21556       18.87786        7.62703       -0.834
       12.08930       18.24090        8.33029        0.417
       13.09418       19.22767        7.77496        0.417
       12.95992       28.12461       17.53001       -0.834
       12.00644       28.18183       17.46802        0.417
       13.19857       27.42634       16.92034        0.417
       17.38057       10.28034       25.50527       -0.834
       17.23671        9.62785       26.19069        0.417
       16.93254        9.92489       24.73771        0.417
       20.51870       21.75672       23.45540       -0.834
       20.83645       20.87891       23.24390        0.417
       21.11953       22.07337       24.12992        0.417
       10.14203       13.74265        5.64101       -0.834
       10.29680       13.83185        4.70063        0.417
       11.01239       13.80507        6.03446        0.417
       31.48295       16.24168       13.37026       -0.834
       31.26036       17.16498       13.48940        0.417
       30.64309       15.81094       13.21115        0.417
       13.94303       22.07136       15.94177       -0.834
       14.07612       22.94396       16.31201        0.417
       12.99239       21.96110       15.92292        0.417
       22.77866       15.62928       21.50362       -0.834
       22.85620       16.57951       21.58889        0.417
       23.58921       15.36018       21.07138        0.417
       27.09435        9.64470       22.08276       -0.834
       26.86121       10.15693       21.30849        0.417
       26.82686       10.19133       22.82160        0.417
        6.48822       14.22544       22.29010       -0.834
        6.36762       15.15384       22.09070        0.417
        7.08410       14.21629       23.03915        0.417
        7.04093       21.05009        9.86195       -0.834
        6.95641       21.29805        8.94129        0.417
        6.66586       21.78687       10.34434        0.417
       13.83087       10.01910        8.87617       -0.834
       14.34187       10.79294        8.63891        0.417
       12.91978       10.28744        8.75730        0.417
       23.98907       19.29579        9.65040       -0.834
       23.52170       19.75027       10.35129        0.417
       24.87671       19.18023        9.98949        0.417
        8.77614       22.95349       16.70001       -0.834
        8.03023       23.19092       16.14912        0.417
        9.12273       23.79069       17.00856        0.417
       18.79423       14.09972       10.60495       -0.834
       18.37012       14.95612       10.65917        0.417
       18.30124       13.54885       11.21302        0.417
       11.88420       13.73678        3.39124       -0.834
       11.18127       13.82027        2.74692        0.417
       12.66413       13.54195        2.87165        0.417
       12.27167        7.54049       22.85314       -0.834
       12.24900        6.58664       22.92996        0.417
       12.43220        7.70263       21.92353        0.417
       24.80683       16.15413       11.70324       -0.834
       25.07217       15.50509       11.05164        0.417
       23.91940       16.40385       11.44565        0.417
       29.45630       24.06045       19.53946       -0.834
       28.52442       24.20153       19.37236        0.417
       29.72664       24.82326       20.05060        0.417
       24.11601       23.99628       19.58547       -0.834
       23.76386       23.65505       20.40752        0.417
       23.36866       24.41726       19.16063        0.417
       12.92109       25.17798       25.28177       -0.834
       13.45442       25.13949       24.48785        0.417
       12.80082       24.26267       25.53470        0.417
       18.28358       29.00932       20.72266       -0.834
       18.74225       29.84881       20.75590        0.417
       17.45622       29.20513       20.28293        0.417
        8.01665       10.68825        6.42702       -0.834
        7.19022       10.31248        6.12364        0.417
        7.91703       11.63017        6.28891        0.417
       18.23075        8.97067        5.21308       -0.834
       18.37435        8.10592        4.82860        0.417
       18.99258        9.48313        4.94247        0.417
        8.68780       19.07043       17.02440       -0.834
        8.04113       19.03567       16.31953        0.417
        8.73951       19.99747       17.25713        0.417
       27.57604        9.96941       15.21302       -0.834
       28.46257        9.64569       15.05329        0.417
       27.30833        9.54394       16.02759        0.417
       21.06291       16.66746        3.73772       -0.834
       21.89197       16.35941        4.10375        0.417
       21.31552       17.33437        3.09924        0.417
       25.52420       17.51923       13.89850       -0.834
       25.40683       17.00746       13.09815        0.417
       25.24733       18.40403       13.66035        0.417
       26.34197       24.91463       16.01862       -0.834
       25.70200       24.31006       16.39432        0.417
       26.77098       25.31155       16.77667        0.417
       11.70604        3.89129       11.02589       -0.834
       12.30173        3.14541       11.09695        0.417
       12.18055        4.61688       11.43158        0.417
       11.44263        9.42383       19.72458       -0.834
       12.22663        9.14858       19.24939        0.417
       11.39771       10.36987       19.58589        0.417
        7.01821       25.93244       13.83300       -0.834
        7.85720       26.12693       14.25073        0.417
        6.60024       26.78674       13.72483        0.417
        3.34564       16.65854       19.20397       -0.834
        3.73784       17.30844       19.78711        0.417
        3.98122       16.55727       18.49543        0.417
       11.66072       27.97701       25.01163       -0.834
       11.88702       27.07634       25.24358        0.417
       12.01549       28.09424       24.13036        0.417
       20.82467       20.43889       28.79611       -0.834
       20.34411       20.99200       29.41205        0.417
       20.37922       20.56888       27.95890        0.417
       13.62735       24.87136       17.86215       -0.834
       13.04966       24.50583       18.53215        0.417
       14.50673       24.78437       18.23006        0.417
       20.81373       16.70479       24.19754       -0.834
       20.86469       15.81657       23.84441        0.417
       19.94554       16.75458       24.59753        0.417
       24.43824       21.58063       26.97378       -0.834
       23.70499       21.19612       27.45411        0.417
       24.55190       21.01095       26.21301        0.417
       25.52020       10.62676        9.75796       -0.834
       26.46733       10.69064        9.63509        0.417
       25.39596        9.81326       10.24685        0.417
       17.58972       22.69536       13.21913       -0.834
       18.13809       22.96340       12.48179        0.417
       17.42437       23.50509       13.70207        0.417
       20.64012       26.23817       11.19824       -0.834
       21.05893       26.11081       12.04948        0.417
       20.61381       25.36343       10.81046        0.417
       11.21940       16.76887       28.53026       -0.834
       11.37425       16.01795       27.95722        0.417
       11.31437       17.53067       27.95854        0.417
       19.44089        8.49129       17.16069       -0.834
       20.31604        8.18152       16.92748        0.417
       19.09430        8.86401       16.35002        0.417
       23.44507        3.90819       17.02636       -0.834
       22.69580        3.77179       17.60621        0.417
       23.07485        3.87604       16.14425        0.417
       18.74833        5.65488       19.98196       -0.834
       19.18886        4.95585       19.49872        0.417
       18.33055        6.18787       19.30549        0.417
       20.60273       19.51139       20.11328       -0.834
       21.11001       19.65347       20.91247        0.417
       19.90705       20.16778       20.15073        0.417
       17.93821       20.24920       24.93220       -0.834
       17.38246       20.86881       24.45948        0.417
       18.60540       20.79469       25.34876        0.417
       14.42784        6.12109       18.40605       -0.834
       15.36606        6.30244       18.46154        0.417
       14.05342        6.55725       19.17144        0.417
       19.43116        3.76821       12.47318       -0.834
       18.91089        2.96615       12.52061        0.417
       20.16244        3.54618       11.89683        0.417
       30.44653       18.89803       13.43802       -0.834
       29.79854       19.42462       12.97000        0.417
       30.82016       19.49652       14.08490        0.417
       10.45443       23.20875        4.78674       -0.834
       10.00402       23.28061        3.94520        0.417
        9.75338       23.24090        5.43768        0.417
       17.27998       24.06236       10.20160       -0.834
       17.99147       23.73779       10.75357        0.417
       17.71705       24.39513        9.41772        0.417
       18.72257        7.16348       25.10002       -0.834
       18.45146        6.32508       25.47394        0.417
       18.70500        7.02108       24.15364        0.417
       18.97714        9.62176       14.53277       -0.834
       18.34867       10.33978       14.60824        0.417
       19.26598        9.65052       13.62064        0.417
       12.75363        7.10380        4.81189       -0.834
       13.56776        6.76209        4.44220        0.417
       12.90157        8.04646        4.88771        0.417
       25.27960        4.20319       19.05774       -0.834
       24.71040        4.33232       18.29908        0.417
       26.00992        4.80528       18.91508        0.417
       27.89046       14.47033       26.08387       -0.834
       28.44636       13.70172       25.95560        0.417
       27.76900       14.52315       27.03186        0.417
       17.63079       20.39185        6.21412       -0.834
       17.42672       19.69171        6.83412        0.417
       16.85749       20.44830        5.65282        0.417
       18.33787       16.97577        3.52431       -0.834
       19.24213       16.73865        3.73002        0.417
       17.80969       16.45577        4.13000        0.417
       17.31728       22.20677       27.71648       -0.834
       17.05315       23.04972       27.34785        0.417
       18.22179       22.09050       27.42566        0.417
       16.69909       10.52599       22.55854       -0.834
       15.82336       10.53964       22.17235        0.417
       17.02989       11.41563       22.43471        0.417
       10.03187        9.47589        5.23562       -0.834
       10.82693        9.96708        5.02862        0.417
        9.43150       10.13042        5.59251        0.417
       14.01813       14.13521       29.10511       -0.834
       13.77168       13.21441       29.01784        0.417
       13.35027       14.50895       29.68002        0.417
        6.50662        5.12144       20.17335       -0.834
        6.76324        5.25360       19.26071        0.417
        7.08746        5.69639       20.67163        0.417
       21.98580       21.14900       13.12314       -0.834
       21.95431       20.63687       13.93120        0.417
       21.32599       20.74679       12.55824        0.417
       20.12988        7.48046       10.56368       -0.834
       20.91504        6.97308       10.35796        0.417
       19.59538        7.42731        9.77140        0.417
       26.46605       21.38097       18.95177       -0.834
       27.13329       20.69479       18.93890        0.417
       26.75388       22.00808       18.28835        0.417
       22.98632       11.55729       21.66318       -0.834
       23.32353       12.09374       22.38064        0.417
       23.44254       11.88107       20.88648        0.417
       24.91507        7.79827       26.30021       -0.834
       25.61611        8.34189       25.94069        0.417
       24.15550        7.99194       25.75087        0.417
       13.00121       22.69422       28.53188       -0.834
       13.66970       22.06433       28.26245        0.417
       13.48588       23.50326       28.69557        0.417
       24.50153       26.88113       19.29395       -0.834
       24.16325       26.03430       19.00297        0.417
       24.05556       27.52115       18.73923        0.417
        5.79894       16.77600       22.22005       -0.834
        5.35496       17.20049       22.95416        0.417
        5.51416       17.26838       21.45018        0.417
       14.59577       30.49627       17.61523       -0.834
       14.21590       29.64109       17.81669        0.417
       13.87022       31.00040       17.24690        0.417
       14.42877       16.25888        7.06094       -0.834
       13.62671       16.35756        7.57397        0.417
       14.12478       16.04086        6.17987        0.417
        9.23399       21.37754       13.63886       -0.834
        9.89460       21.88611       13.16855        0.417
        9.04763       21.89339       14.42333        0.417
        5.59398       23.35813        9.98181       -0.834
        5.62561       24.15208       10.51556        0.417
        4.76542       23.42122        9.50670        0.417
        6.22166        8.07385       15.25007       -0.834
        6.81515        8.53358       14.65623        0.417
        6.09313        8.68121       15.97864        0.417
       15.23016       26.39432       26.66169       -0.834
       15.06744       25.45637       26.76173        0.417
       16.17837       26.46283       26.55011        0.417
       14.47312       16.58694       23.97620       -0.834
       15.08667       16.28500       23.30640        0.417
       14.02331       15.79292       24.26506        0.417
       22.43443       18.77069       25.99345       -0.834
       22.26150       18.58500       26.91640        0.417
       22.24123       17.94852       25.54295        0.417
       19.29093       22.34030        7.57331       -0.834
       18.86468       22.56950        6.74747        0.417
       19.83350       21.58094        7.36068        0.417
        8.26967       14.39184       27.79055       -0.834
        8.43270       15.09059       28.42411        0.417
        8.91020       13.71508       28.00954        0.417
       27.02915       17.25401       17.65657       -0.834
       27.65374       17.12215       16.94332        0.417
       27.46716       17.86480       18.24929        0.417
        9.55114       10.05139       17.09719       -0.834
        9.53856        9.09697       17.02542        0.417
       10.32310       10.31939       16.59870        0.417
       23.14877        4.52907       12.84957       -0.834
       22.88386        5.20332       13.47522        0.417
       22.82579        3.71099       13.22728        0.417
       18.19028       17.11820       10.44104       -0.834
       17.41301       17.46318       10.88044        0.417
       18.72041       17.89166       10.24877        0.417
       21.89212       17.03499        7.90331       -0.834
       22.84146       17.05815        7.78313        0.417
       21.56339       17.74764        7.35531        0.417
       11.89824       21.78494       19.10470       -0.834
       12.41715       22.41105       19.60963        0.417
       11.77365       21.04352       19.69716        0.417
       18.39137        1.95410       19.68667       -0.834
       18.66622        2.86351       19.80357        0.417
       17.56285        2.01305       19.21096        0.417
       10.02816       19.89115       29.43569       -0.834
       10.64659       19.73825       30.15011        0.417
        9.18422       20.01264       29.87070        0.417
       15.37617       17.14466        2.44224       -0.834
       16.24275       16.74819        2.35229        0.417
       15.07116       17.26153        1.54249        0.417
       13.95303        7.66344       20.58876       -0.834
       14.21541        8.58398       20.58843        0.417
       14.73935        7.18987       20.86019        0.417
        3.02414       13.99424       19.69548       -0.834
        2.83483       13.72832       18.79566        0.417
        3.03417       14.95093       19.66593        0.417
       20.00644       22.54143       20.50643       -0.834
       19.49223       21.92264       21.02499        0.417
       20.79329       22.69668       21.02893        0.417
        6.32469       18.47436       11.02503       -0.834
        6.47881       19.08590       11.74510        0.417
        6.54293       18.97176       10.23687        0.417
       25.29516       25.07034        9.06807       -0.834
       24.63762       24.85072        9.72810        0.417
       25.04560       24.55606        8.30029        0.417
        5.83160       11.46362       24.31371       -0.834
        6.41391       12.03221       23.80988        0.417
        5.06942       12.01005       24.50539        0.417
       14.79889       19.78653        8.24133       -0.834
       15.43231       19.09214        8.06016        0.417
       15.30930       20.46937        8.67658        0.417
       18.31541       17.47742       25.23384       -0.834
       17.64917       17.28823       24.57310        0.417
       18.49552       18.41202       25.13229        0.417
       21.74285       24.06596       13.16725       -0.834
       22.30287       24.59673       13.73373        0.417
       22.11889       23.18694       13.21359        0.417
       21.86196        4.35100       20.23401       -0.834
       21.57195        4.50003       19.33406        0.417
       22.25359        5.18268       20.50079        0.417
       12.25515       29.47207       11.56706       -0.834
       12.05086       29.29202       12.48471        0.417
       12.29010       28.60875       11.15512        0.417
        9.56164       19.40545        9.91122       -0.834
        9.57385       18.74246        9.22090        0.417