%Nproc=32
%Mem=120Gb
%chk=temp.chk
#p cam-b3lyp/6-31+G(d,p) nosymm charge Freq 

Calculation for S0 with freq for abs spect

0  1
 C         15.67001       17.52951       16.07990
 C         17.29263       15.73382       15.50664
 C         17.69386       15.59301       16.75284
 C         17.02629       16.30618       17.76575
 N         16.02668       17.20797       17.42578
 H         17.67125       15.12497       14.63812
 H         18.45954       14.96849       17.03646
 O         17.17321       16.07324       18.97937
 O         14.84122       18.33227       15.79511
 N         16.36929       16.69331       15.18925
 H         15.95504       16.77448       14.32139
 H         15.50575       17.72944       18.15479
 O         13.60160       15.33937       14.13699
 H         14.55017       15.40854       14.24507
 H         13.42435       14.39927       14.16886
 O         20.98591       17.21064       17.37458
 H         21.79317       16.80576       17.05734
 H         20.33914       16.50534       17.35304
 O         14.98981       12.55437       19.68705
 H         15.82711       12.22787       19.35757
 H         14.93972       13.45440       19.36509
 O         12.90971       19.12184       17.45966
 H         13.38372       18.35117       17.14721
 H         13.22374       19.83726       16.90668
 O         16.97175       11.45363       17.55209
 H         17.62393       11.86676       16.98620
 H         16.17906       11.41587       17.01689
 O         16.05157       16.77059       21.03947
 H         15.44058       17.49906       21.15012
 H         15.89869       16.21132       21.80110
 O         19.23469       16.64390       13.53772
 H         19.94148       17.25909       13.34221
 H         19.67562       15.88580       13.92124
 O         14.10461       20.71677       15.44114
 H         14.76031       21.32993       15.77331
 H         14.59306       20.13565       14.85809
 O         19.93847       19.07186       19.17650
 H         20.27961       18.59245       18.42150
 H         20.48236       18.78361       19.90953
 O         19.68749       12.31891       18.89289
 H         19.71363       13.08435       18.31874
 H         20.60491       12.14602       19.10427
 O         17.75122       20.41081       15.13978
 H         17.40951       19.93050       15.89394
 H         18.68352       20.19479       15.12004
 O         17.63905       20.12711       20.10347
 H         18.32446       19.71266       19.57937
 H         16.84390       20.02861       19.57977
 O         20.28532       19.56483       15.57711
 H         20.22348       18.64950       15.85019
 H         21.01789       19.91709       16.08257
 O         19.75768       14.57532       17.04403
 H         20.15265       13.97501       16.41168
 H         19.22421       15.16651       16.51286
 O         15.41137       18.96811       13.58392
 H         15.66774       18.27863       12.97144
 H         15.66397       19.78216       13.14832
 O         15.79423       14.03038       12.62789
 H         15.42759       13.19768       12.33053
 H         16.39650       14.29004       11.93070
 O         12.84031       16.50441       16.65183
 H         13.05749       16.02556       15.85198
 H         12.34674       15.87735       17.18042
 O         18.23617       14.19484       20.59064
 H         18.79136       13.43231       20.42767
 H         17.69540       14.27038       19.80445
 
       29.10702       17.33087       18.89467       -0.834
       28.53444       17.45484       18.13769        0.417
       28.54750       17.50919       19.65056        0.417
       15.68459       17.11586       11.34690       -0.834
       15.17445       16.34244       11.58733        0.417
       16.46489       16.76480       10.91781        0.417
        9.25486       19.91776       23.61380       -0.834
        8.91421       19.64413       24.46546        0.417
        8.94049       20.81551       23.50678        0.417
       27.13153       18.87504        7.31519       -0.834
       26.43839       18.21642        7.36002        0.417
       26.83630       19.48873        6.64255        0.417
       26.97093       10.94459        7.51615       -0.834
       26.53183       11.29139        6.73952        0.417
       27.64187       10.35624        7.16986        0.417
       10.44498       12.57753        7.27965       -0.834
       11.26649       12.47455        7.76001        0.417
       10.33780       13.52425        7.18769        0.417
        5.72238       11.56202       22.51546       -0.834
        5.64692       11.02944       21.72369        0.417
        5.63181       10.93693       23.23468        0.417
       13.32637       13.29057       27.18062       -0.834
       14.22291       13.56689       27.37060        0.417
       12.77731       13.95949       27.58965        0.417
       14.62281        8.55461       12.60144       -0.834
       14.51888        8.76973       11.67453        0.417
       15.45520        8.95699       12.84932        0.417
       26.42902       24.73151       18.65661       -0.834
       27.22983       25.02915       19.08829        0.417
       26.20709       25.43743       18.04943        0.417
       23.13003       28.16271       12.53059       -0.834
       23.20946       27.29848       12.12683        0.417
       23.58006       28.07721       13.37107        0.417
       30.62266       22.44248       21.10300       -0.834
       29.89877       21.99949       20.66031        0.417
       31.34458       22.40847       20.47541        0.417
       10.04372        7.02260        8.00618       -0.834
        9.66714        7.63144        7.37078        0.417
       10.76743        7.50724        8.40317        0.417
       24.62175       26.86049       21.46742       -0.834
       24.54282       25.96340       21.14302        0.417
       23.82102       27.29384       21.17199        0.417
       16.91457       19.01750        3.81398       -0.834
       16.09345       19.32445        4.19841        0.417
       17.15094       19.69494        3.18039        0.417
        9.39218       21.45522       13.71242       -0.834
       10.32131       21.65201       13.83169        0.417
        9.09608       22.08451       13.05474        0.417
       11.91796       27.49929       15.86285       -0.834
       12.80860       27.76976       15.63962        0.417
       11.82747       26.62851       15.47583        0.417
       22.00850       27.94648       22.08311       -0.834
       22.26754       28.33831       21.24909        0.417
       21.72020       28.68690       22.61686        0.417
       14.20337       10.74619       22.07038       -0.834
       13.26699       10.59475       22.19882        0.417
       14.24595       11.46322       21.43770        0.417
        7.98039        8.82883       13.92529       -0.834
        7.82112        9.76057       13.77453        0.417
        8.09765        8.75559       14.87245        0.417
        7.21348       23.89966       21.87001       -0.834
        6.71145       24.57594       22.32483        0.417
        7.68098       24.37086       21.18034        0.417
       15.80596       28.76775        7.22874       -0.834
       15.28645       29.26614        7.85958        0.417
       16.04477       27.96630        7.69444        0.417
       20.67842        8.63561        8.14648       -0.834
       20.33776        7.79250        8.44540        0.417
       21.56672        8.67481        8.50091        0.417
       17.25537       29.66060       21.34659       -0.834
       17.53531       28.79383       21.05237        0.417
       16.32050       29.56242       21.52713        0.417
        8.39046        8.44989       16.55161       -0.834
        9.30228        8.65473       16.75861        0.417
        8.34131        7.49534       16.60294        0.417
       15.85009       24.46645        4.28681       -0.834
       16.60579       23.87994        4.25275        0.417
       15.54980       24.52388        3.37975        0.417
       26.85198       18.16702       20.28905       -0.834
       26.04516       17.80354       19.92413        0.417
       26.56985       18.94920       20.76322        0.417
        9.73707        4.57462       14.41594       -0.834
        9.47824        5.19712       13.73643        0.417
        8.95230        4.04909       14.57148        0.417
       17.01716        9.78197       13.30749       -0.834
       17.83043        9.37701       13.60887        0.417
       17.21084       10.71901       13.28172        0.417
       16.30601       11.69187       28.18796       -0.834
       17.08469       12.23873       28.29207        0.417
       16.14602       11.33342       29.06096        0.417
       21.42147       22.29704       14.22873       -0.834
       22.20005       22.78162       14.50300        0.417
       21.11051       21.87062       15.02730        0.417
       12.10887       30.03348       13.91171       -0.834
       12.46427       30.74473       13.37875        0.417
       11.16012       30.10713       13.80835        0.417
        4.09954        8.10874       14.35658       -0.834
        4.46027        7.36277       13.87738        0.417
        4.86406        8.63259       14.59599        0.417
       11.30252       15.42508       27.47204       -0.834
       10.63370       14.74441       27.39717        0.417
       10.99506       15.98637       28.18384        0.417
       23.07528       19.88098       12.38727       -0.834
       22.93230       20.53365       11.70185        0.417
       22.72076       20.28378       13.17992        0.417
       18.10426       16.83818        2.02529       -0.834
       18.39092       17.04283        2.91533        0.417
       17.16230       17.00815        2.03149        0.417
       11.55322       14.63213       18.28406       -0.834
       11.47991       14.97503       19.17472        0.417
       10.64772       14.51459       17.99687        0.417
        4.14409       22.12601       18.57294       -0.834
        4.47612       21.23303       18.48032        0.417
        4.30451       22.34777       19.49018        0.417
        3.63433       23.49197       14.68991       -0.834
        2.91939       22.87173       14.54715        0.417
        4.17063       23.42601       13.89981        0.417
       11.25415       17.20593       10.72157       -0.834
       11.63494       17.99619       11.10460        0.417
       10.63677       17.53047       10.06602        0.417
       18.98017       12.56641        3.98878       -0.834
       19.11329       13.45380        3.65552        0.417
       19.26457       11.99653        3.27424        0.417
        4.18480       19.05777       15.70226       -0.834
        3.51061       18.48996       15.32904        0.417
        4.23390       18.79913       16.62255        0.417
       11.10002        9.01122       16.83558       -0.834
       11.18042        9.93337       17.07930        0.417
       11.99993        8.68508       16.83020        0.417
       15.27352       25.66955       12.56513       -0.834
       15.94431       25.12758       12.14975        0.417
       15.57550       26.56824       12.43326        0.417
       15.54791        8.68058       20.58330       -0.834
       15.06948        9.42366       20.95096        0.417
       16.22485        9.07823       20.03570        0.417
       16.73307        5.29079       13.06769       -0.834
       15.91794        5.77896       13.18383        0.417
       16.75048        5.07089       12.13625        0.417
        8.71873       17.41677       22.28942       -0.834
        8.46632       18.33367       22.39814        0.417
        8.86695       17.10133       23.18092        0.417
       10.22684       11.49254        4.61871       -0.834
       10.34830       11.96650        5.44141        0.417
        9.28772       11.31095        4.58275        0.417
       22.24438       11.11180       10.35907       -0.834
       22.94682       11.36643       10.95738        0.417
       22.63994       10.44925        9.79269        0.417
       25.97139       13.49893       25.47727       -0.834
       25.18149       13.48842       24.93673        0.417
       25.84888       14.24304       26.06679        0.417
       31.08754       20.25472       16.55072       -0.834
       31.80374       19.86215       17.04985        0.417
       30.42498       20.46693       17.20815        0.417
       28.44550       16.99222       14.08638       -0.834
       28.95459       16.49055       13.44968        0.417
       27.96617       16.33064       14.58518        0.417
       23.64540       20.95736        4.54140       -0.834
       24.10558       20.51015        3.83115        0.417
       23.12241       20.27207        4.95746        0.417
       28.73719       18.05057       10.84120       -0.834
       29.36373       17.56636       10.30340        0.417
       29.19533       18.85774       11.07532        0.417
       11.23395       27.50363       25.24237       -0.834
       11.58831       26.80685       25.79478        0.417
       10.41068       27.74924       25.66443        0.417
       14.90206       20.47383       26.40082       -0.834
       14.56091       20.88994       27.19243        0.417
       14.15782       20.45630       25.79913        0.417
       21.67720        9.56820       17.00758       -0.834
       21.57574        8.66696       17.31368        0.417
       21.87568       10.06939       17.79856        0.417
       24.45479       13.53623       16.20427       -0.834
       24.21843       13.19749       17.06777        0.417
       23.81412       14.22665       16.03372        0.417
       26.73226        7.91414       12.23809       -0.834
       25.98495        7.53593       12.70147        0.417
       26.66655        7.56322       11.34996        0.417
       22.14973        2.92727       11.47093       -0.834
       22.50291        3.70608       11.04087        0.417
       21.43306        3.25675       12.01319        0.417
       23.59958       22.11298       21.71298       -0.834
       23.78943       22.91885       21.23260        0.417
       23.02680       21.61513       21.12963        0.417
       23.40158       17.53206       23.23876       -0.834
       23.32443       18.20785       23.91224        0.417
       22.76888       16.86202       23.49754        0.417
       20.01555       12.86171       10.09242       -0.834
       20.86389       12.70548       10.50732        0.417
       20.13854       13.66758        9.59074        0.417
       10.18934       19.06524        6.74772       -0.834
       10.06806       18.30117        6.18405        0.417
       10.29587       19.79718        6.14016        0.417
        8.28017        5.70658       17.09802       -0.834
        8.23234        5.47341       18.02516        0.417
        8.18643        4.87358       16.63592        0.417
       18.51531        7.68051       17.08743       -0.834
       18.51761        6.80066       17.46439        0.417
       18.30550        8.25613       17.82287        0.417
       16.70079       15.54182        5.83760       -0.834
       16.68043       15.43796        4.88627        0.417
       17.52748       15.14033        6.10521        0.417
       15.90182        4.56426       10.43381       -0.834
       15.53216        3.81267        9.97046        0.417
       15.87079        5.27794        9.79669        0.417
       26.15357       25.09634       15.28850       -0.834
       27.08099       24.91276       15.13876        0.417
       26.14678       25.72380       16.01133        0.417
       18.83741       13.72972        6.58769       -0.834
       18.15278       13.22348        7.02500        0.417
       19.22642       13.11769        5.96293        0.417
       15.58823       28.50074       12.21131       -0.834
       15.91165       29.07438       11.51664        0.417
       14.65954       28.38239       12.01188        0.417
        7.22654       14.03804        5.71476       -0.834
        7.05774       14.31185        6.61629        0.417
        6.36944       14.06990        5.28980        0.417
       13.74281       27.47180       26.90809       -0.834
       14.29462       26.93094       26.34310        0.417
       14.21953       28.29784       26.98948        0.417
        8.19401       22.73898       24.29224       -0.834
        8.57695       23.61441       24.34905        0.417
        7.71870       22.73841       23.46139        0.417
        8.95338        9.83272       24.36869       -0.834
        9.62555        9.18807       24.58969        0.417
        8.68693        9.60581       23.47776        0.417
       21.41843        6.97134       17.89499       -0.834
       20.56549        6.86726       17.47322        0.417
       21.24215        6.84500       18.82730        0.417
        6.54418       13.32016       24.74264       -0.834
        6.31293       12.81194       23.96517        0.417
        7.12820       12.74689       25.23914        0.417
       27.07997       10.33177       16.51811       -0.834
       27.06963        9.41961       16.80808        0.417
       26.15945       10.54571       16.36610        0.417
       28.56856       10.19022       12.13713       -0.834
       28.09613        9.36878       12.00191        0.417
       28.65550       10.26341       13.08756        0.417
       13.70400       13.97080       30.73306       -0.834
       13.51811       13.17247       31.22737        0.417
       13.53339       14.68119       31.35150        0.417
       28.48310        6.85171       13.97162       -0.834
       28.59442        5.98365       13.58390        0.417
       27.84199        7.28558       13.40862        0.417
       13.96748        6.85186       27.33840       -0.834
       14.34810        7.72952       27.37109        0.417
       13.70768        6.66917       28.24138        0.417
        3.25629       10.69065       17.70072       -0.834
        2.89588        9.93852       18.17044        0.417
        2.50282       11.07997       17.25694        0.417
       13.06248        8.70192        4.41309       -0.834
       13.39143        7.89298        4.02113        0.417
       12.11010        8.60792        4.39389        0.417
       20.89509       23.40492       11.81993       -0.834
       21.00328       22.91881       12.63738        0.417
       21.06620       24.31608       12.05810        0.417
       14.79238       29.09891       23.40501       -0.834
       13.89030       29.05183       23.72164        0.417
       14.80789       28.52583       22.63848        0.417
       20.52363       16.30909        4.22088       -0.834
       20.50853       16.75081        5.06992        0.417
       20.49304       17.01955        3.58015        0.417
       11.46014       10.00293       22.45534       -0.834
       10.61767       10.41587       22.64498        0.417
       11.34044        9.59664       21.59695        0.417
       30.64189       19.12478       21.33471       -0.834
       31.41827       19.62600       21.58410        0.417
       30.41698       19.44881       20.46255        0.417
       12.30898        8.93463        7.40867       -0.834
       12.87612        8.64242        6.69509        0.417
       12.35703        9.89011        7.37751        0.417
        6.65080        7.75588       23.50075       -0.834
        7.38600        8.16822       23.04722        0.417
        6.16904        8.48576       23.88987        0.417
       24.91247       16.73969        4.46688       -0.834
       24.26572       16.77684        3.76219        0.417
       25.58754       17.36629        4.20633        0.417
       11.68713       18.37800       19.92361       -0.834
       11.89856       18.80022       19.09100        0.417
       11.24881       17.56404       19.67544        0.417
        6.26276       15.39795       27.97516       -0.834
        5.54479       14.76947       27.89918        0.417
        6.31014       15.81343       27.11414        0.417
       24.77834       18.36194       10.72977       -0.834
       24.47966       18.78450        9.92449        0.417
       24.50119       18.95435       11.42868        0.417
        8.34212        6.22270       12.54934       -0.834
        8.29883        7.08519       12.96222        0.417
        8.65774        6.39671       11.66258        0.417
       14.76234       20.39787        5.41957       -0.834
       14.04058       19.80642        5.63282        0.417
       14.41891       21.27201        5.60443        0.417
       10.00140       15.52058       20.57928       -0.834
        9.47617       14.73374       20.72503        0.417
        9.57449       16.19528       21.10727        0.417
       27.54882       16.72605       27.49620       -0.834
       27.36079       17.65616       27.37057        0.417
       26.74769       16.28001       27.22150        0.417
       22.42294       21.44537       10.29683       -0.834
       22.01266       22.31010       10.30872        0.417
       22.71435       21.33041        9.39235        0.417
       26.56582       17.59147       23.87630       -0.834
       25.66709       17.58768       23.54690        0.417
       26.57978       16.90525       24.54348        0.417
       11.66707        8.40351       19.83832       -0.834
       11.81651        7.46280       19.93296        0.417
       11.50122        8.52734       18.90376        0.417
        4.55651       15.44632       15.08170       -0.834
        5.12973       16.19524       14.91808        0.417
        4.64759       14.89941       14.30142        0.417
       22.85752       21.92786        7.48183       -0.834
       23.16661       22.83286        7.52270        0.417
       22.50832       21.83332        6.59563        0.417
       12.77558       10.24655       11.21205       -0.834
       12.57224        9.82389       12.04646        0.417
       12.34755       11.10106       11.26529        0.417
       14.73456       23.66701        9.89686       -0.834
       14.95161       22.79835        9.55840        0.417
       14.10151       24.01745        9.27022        0.417
        5.26973       12.58739        9.52972       -0.834
        6.16838       12.87891        9.68357        0.417
        5.36299       11.77133        9.03821        0.417
       20.46548       28.60750       25.07985       -0.834
       20.64901       27.67219       24.99186        0.417
       21.14528       29.03547       24.55933        0.417
       18.37773       25.65594       13.28636       -0.834
       19.29262       25.83988       13.07332        0.417
       18.11587       24.98247       12.65859        0.417
       22.20066       21.46566       27.56397       -0.834
       21.96646       21.81359       26.70357        0.417
       21.62209       20.71260       27.68391        0.417
       22.56416        7.96659        5.54679       -0.834
       23.11979        8.48417        6.12957        0.417
       21.94390        7.53066        6.13115        0.417
       22.51568       16.68733       10.45681       -0.834
       22.37039       16.95731        9.55004        0.417
       23.35108       17.08884       10.69583        0.417
       19.55812       30.83150       14.06705       -0.834
       20.29960       30.34347       13.70891        0.417
       19.43654       30.47246       14.94600        0.417
       18.54390       26.38638       10.27546       -0.834
       18.71932       27.03587       10.95635        0.417
       18.61674       26.87348        9.45469        0.417
       15.29596       10.10189       24.48828       -0.834
       15.78673       10.85490       24.81747        0.417
       15.24238       10.24485       23.54333        0.417
       22.89172        6.12777       22.33713       -0.834
       22.21141        6.50503       21.77939        0.417
       23.07412        6.80730       22.98614        0.417
       14.02493        3.98879       19.51756       -0.834
       13.21915        3.55927       19.23039        0.417
       14.69641        3.66555       18.91685        0.417
       17.14649       24.10705       17.88370       -0.834
       18.05427       24.19770       18.17346        0.417
       16.62728       24.23432       18.67772        0.417
        8.61114        9.15469        6.75242       -0.834
        8.64497        9.77737        7.47862        0.417
        8.22744        9.65033        6.02899        0.417
       27.24553       14.68726       15.87173       -0.834
       26.34436       14.39105       15.74374        0.417
       27.61475       14.06760       16.50096        0.417
       12.41750        4.96388       16.44817       -0.834
       11.50516        5.08414       16.18471        0.417
       12.92542        5.37602       15.74932        0.417
        7.65892       13.88300        9.76652       -0.834
        7.17284       14.63070        9.41879        0.417
        8.57905       14.12242        9.65572        0.417
        6.41309        9.08393       10.96618       -0.834
        6.87055        9.89981       10.76293        0.417
        7.10954        8.43254       11.04913        0.417
       16.97655       21.98320        6.32081       -0.834
       17.13698       22.25297        5.41653        0.417
       16.32939       21.28142        6.25067        0.417
       10.58573       13.02721       23.16479       -0.834
       11.31720       13.03865       22.54750        0.417
       10.93999       12.60791       23.94895        0.417
       20.97652        7.06987       20.52423       -0.834
       20.25446        6.66051       21.00098        0.417
       20.81555        8.00991       20.60575        0.417
       21.87677       15.66638       24.12625       -0.834
       21.10611       15.34324       23.65945        0.417
       21.52523       16.06744       24.92111        0.417
       17.63797       27.05602       23.70068       -0.834
       18.24501       27.68085       23.30404        0.417
       17.69587       26.27911       23.14455        0.417
       11.85651       28.56749       22.71153       -0.834
       12.53480       27.99870       22.34735        0.417
       11.58874       28.13342       23.52153        0.417
       16.98040       21.33958       12.75142       -0.834
       17.41731       21.08299       13.56353        0.417
       17.60786       21.12176       12.06217        0.417
       27.02978       19.69705       26.99565       -0.834
       26.97998       20.16256       26.16079        0.417
       26.13993       19.73694       27.34610        0.417
       22.53121        3.56825       22.21445       -0.834
       22.70755        3.46804       21.27898        0.417
       22.67597        4.49845       22.38765        0.417
       24.78390        9.23979        6.70218       -0.834
       24.93354        9.05933        5.77413        0.417
       24.96831       10.17418        6.79774        0.417
       16.77894       15.11922       31.71810       -0.834
       17.33174       14.58100       31.15157        0.417
       16.24538       14.48875       32.20190        0.417
        8.28562       28.06476       22.37222       -0.834
        7.75546       27.30403       22.60979        0.417
        9.16911       27.84283       22.66618        0.417
       22.51335       27.67356       17.09802       -0.834
       21.99285       28.38518       16.72531        0.417
       22.63611       27.92059       18.01460        0.417
       28.42534       13.14035       13.67434       -0.834
       27.94042       13.51610       14.40912        0.417
       29.16500       13.73424       13.54616        0.417
       13.20704       15.41210       11.22288       -0.834
       12.51238       16.07041       11.20517        0.417
       13.25195       15.13516       12.13804        0.417
       10.20729       17.13543        4.87617       -0.834
        9.27117       17.33488        4.86449        0.417
       10.54503       17.52160        4.06806        0.417
       15.01461        9.59346       27.29017       -0.834
       15.35266       10.33450       27.79298        0.417
       15.42240        9.68197       26.42874        0.417
        6.09605       17.69581       14.00630       -0.834
        5.55311       18.32290       14.48401        0.417
        6.96059       18.10513       13.97072        0.417
       13.74726       24.53892       18.20154       -0.834
       13.90429       24.84379       17.30788        0.417
       14.48232       24.88680       18.70643        0.417
       18.95690       27.44385        7.79381       -0.834
       18.68742       28.29558        7.45004        0.417
       18.93407       26.86070        7.03510        0.417
       22.55132       26.54264       25.08363       -0.834
       22.87774       25.71784       24.72391        0.417
       23.31371       26.93885       25.50554        0.417
       10.55049        8.91748       10.25931       -0.834
       11.23662        9.49578       10.59251        0.417
        9.99405        9.48672        9.72773        0.417
        3.31034       15.78974       11.56512       -0.834
        2.76499       16.14584       10.86368        0.417
        4.20852       15.92734       11.26416        0.417
       21.08650       10.77437       29.30191       -0.834
       21.43091       10.35070       30.08811        0.417
       21.66630       11.52243       29.15885        0.417
       28.91179       20.63284       19.45954       -0.834
       28.34320       21.06922       18.82509        0.417
       28.59010       19.73184       19.49018        0.417
        6.07027       15.93479       11.69331       -0.834
        7.01681       15.86558       11.56880        0.417
        5.95903       16.68740       12.27421        0.417
       19.93063        9.54581       10.67791       -0.834
       20.77944        9.98510       10.73050        0.417
       19.58158        9.79960        9.82352        0.417