%Nproc=32
%Mem=120Gb
%chk=temp.chk
#p cam-b3lyp/6-31+G(d,p) nosymm charge Freq 

Calculation for S0 with freq for abs spect

0  1
 C         15.67001       17.52951       16.07990
 C         17.29263       15.73382       15.50664
 C         17.69386       15.59301       16.75284
 C         17.02629       16.30618       17.76575
 N         16.02668       17.20797       17.42578
 H         17.67125       15.12497       14.63812
 H         18.45954       14.96849       17.03646
 O         17.17321       16.07324       18.97937
 O         14.84122       18.33227       15.79511
 N         16.36929       16.69331       15.18925
 H         15.95504       16.77448       14.32139
 H         15.50575       17.72944       18.15479
 O         13.93671       16.80629       14.89984
 H         14.36077       17.37439       15.54303
 H         13.00297       16.87256       15.09974
 O         14.96495       17.77830       12.54849
 H         14.52761       17.55553       13.37027
 H         15.88938       17.58946       12.70973
 O         16.98265       21.12405       15.22033
 H         17.35884       21.85661       15.70826
 H         17.39773       20.34741       15.59553
 O         21.13759       15.25558       15.37604
 H         20.65278       14.44362       15.52412
 H         21.53799       15.14221       14.51403
 O         15.43440       12.06257       13.46967
 H         15.86624       12.90791       13.59275
 H         14.71564       12.06596       14.10181
 O         19.60815       14.76852       18.18742
 H         18.90068       14.32510       18.65551
 H         19.50740       14.48731       17.27802
 O         12.61857       15.30917       12.88715
 H         12.46953       14.57193       13.47917
 H         13.18119       15.90461       13.38226
 O         12.63007       13.74268       18.51899
 H         12.83799       14.57409       18.94532
 H         12.58928       13.10921       19.23543
 O         17.45989       17.02945       21.36663
 H         17.71407       17.62625       20.66275
 H         17.99363       17.29884       22.11414
 O         17.20775       20.98272       18.01907
 H         16.85104       20.30647       17.44316
 H         18.00535       20.59498       18.37922
 O         17.52639       17.41782       12.68276
 H         18.35906       17.88570       12.74584
 H         17.63484       16.83518       11.93110
 O         20.28559       20.22965       16.37026
 H         21.02222       19.78740       15.94833
 H         19.72848       19.51874       16.68723
 O         15.98062       12.28101       17.60915
 H         15.57951       11.69205       16.97003
 H         16.49765       11.70634       18.17365
 O         12.96476       16.45838       19.20497
 H         12.46222       16.54324       20.01521
 H         12.76895       17.25781       18.71629
 O         20.55887       17.64630       18.50009
 H         20.12162       16.80936       18.34333
 H         21.43845       17.40661       18.79183
 O         19.10272       19.67514       19.34385
 H         19.70506       19.01127       19.00815
 H         19.35451       19.78602       20.26066
 O         19.71428       18.77657       13.13746
 H         19.99572       19.63816       12.82975
 H         20.17874       18.65391       13.96538
 O         14.07278       18.92561       16.88462
 H         14.48973       19.77092       16.71773
 H         13.44934       19.10052       17.58957
 O         19.25072       14.81503       12.72294
 H         18.91060       14.06227       12.23930
 H         18.47005       15.26943       13.03967
 O         19.40037       13.29787       15.60564
 H         18.96111       13.25096       14.75647
 H         19.86702       12.46550       15.68074
 
        7.16443       23.71123        8.38435       -0.834
        7.79362       24.03961        7.74208        0.417
        7.24359       22.75871        8.33256        0.417
       24.66364       23.10740        9.04192       -0.834
       23.74322       22.84480        9.05163        0.417
       25.06348       22.60702        9.75328        0.417
       17.47833       24.50063       24.44375       -0.834
       17.33485       25.42710       24.25064        0.417
       18.08444       24.50098       25.18461        0.417
       24.58313       16.24004       14.70325       -0.834
       25.33361       16.22803       15.29728        0.417
       24.45903       15.32401       14.45481        0.417
       18.16570        7.08890       22.36277       -0.834
       17.88042        7.95767       22.07979        0.417
       19.08410        7.20532       22.60609        0.417
       14.76256        7.11512       20.33069       -0.834
       14.84508        6.21784       20.65366        0.417
       15.25457        7.64281       20.95974        0.417
       23.55071       13.42665       14.16079       -0.834
       24.00371       12.86340       13.53328        0.417
       22.85715       13.84499       13.65069        0.417
       20.56534        6.74025       25.53152       -0.834
       20.86574        6.83542       24.62767        0.417
       19.98793        5.97703       25.51340        0.417
       13.64545        9.52423       19.46701       -0.834
       14.49898        9.91997       19.29049        0.417
       13.85044        8.65286       19.80603        0.417
       15.48578        8.66081       22.75437       -0.834
       15.29512        8.27515       23.60945        0.417
       16.26034        9.20319       22.90305        0.417
        7.74687       19.21544       19.37199       -0.834
        6.86903       18.98293       19.67459        0.417
        8.33006       18.90028       20.06250        0.417
       21.30945       22.79373       13.39264       -0.834
       21.91192       23.53585       13.44275        0.417
       21.87579       22.03326       13.26161        0.417
       15.15632       11.42007        8.09172       -0.834
       15.27808       11.78948        7.21711        0.417
       14.22230       11.21586        8.13808        0.417
       30.17842       16.94045       14.37476       -0.834
       29.40785       16.47815       14.04500        0.417
       30.11939       17.81311       13.98591        0.417
       17.78705       30.69097       20.01570       -0.834
       17.88451       31.50875       19.52788        0.417
       16.96105       30.32197       19.70297        0.417
       14.12441        4.45398       18.20123       -0.834
       14.02719        5.24776       17.67522        0.417
       13.56253        3.81006       17.77009        0.417
        6.11622        9.53759       12.55277       -0.834
        6.74545        9.87634       11.91595        0.417
        5.82400        8.70497       12.18184        0.417
        7.11807       18.72566       24.82937       -0.834
        7.54121       19.05847       24.03791        0.417
        7.10260       19.47399       25.42602        0.417
       12.74818       14.74928       23.69630       -0.834
       12.57637       14.57280       24.62127        0.417
       13.59263       14.33228       23.52526        0.417
       22.94725        8.52677       21.12893       -0.834
       22.71152        9.44844       21.02315        0.417
       23.78813        8.54505       21.58590        0.417
       25.77555       21.68585       11.03852       -0.834
       25.82345       20.73386       10.95107        0.417
       25.22777       21.82869       11.81037        0.417
       19.85093        7.36851       15.30153       -0.834
       20.46955        7.85796       14.75933        0.417
       20.05342        7.63627       16.19793        0.417
       15.62120       27.04587       21.36119       -0.834
       15.00424       26.31602       21.41506        0.417
       16.04042       27.06973       22.22137        0.417
       11.75541       24.28253       12.44106       -0.834
       12.31754       23.69087       11.94087        0.417
       11.64974       23.85283       13.28983        0.417
       11.16304        9.37388       18.67645       -0.834
       12.07441        9.32218       18.96446        0.417
       10.68033        9.64934       19.45577        0.417
       18.29496       19.82064        2.37752       -0.834
       17.96347       20.54560        1.84763        0.417
       18.70025       20.24276        3.13501        0.417
        4.30311        8.43761       15.27286       -0.834
        4.78495        8.91433       14.59699        0.417
        4.97967        8.11904       15.87037        0.417
       12.06402        7.50387       25.44245       -0.834
       12.73073        8.17555       25.58587        0.417
       12.37058        6.74998       25.94634        0.417
       19.55083       28.93546       18.33489       -0.834
       18.93285       29.41648       18.88531        0.417
       20.01633       29.61457       17.84668        0.417
       23.24188       12.24163       24.05554       -0.834
       23.85212       12.66397       23.45100        0.417
       23.60783       11.36816       24.19470        0.417
       27.83875       21.98860        8.86009       -0.834
       27.30326       21.62521        9.56538        0.417
       27.62964       21.44903        8.09762        0.417
       11.77066       13.59327       28.91496       -0.834
       11.03541       13.25723       29.42751        0.417
       12.41404       13.86655       29.56887        0.417
       19.35661       19.34882        9.42623       -0.834
       19.02033       19.63010        8.57533        0.417
       18.98660       18.47527        9.55366        0.417
       28.35095       17.19454       11.30558       -0.834
       28.87107       16.62134       10.74243        0.417
       28.24756       16.70171       12.11962        0.417
        1.77534       15.00550       14.26255       -0.834
        2.42318       14.36940       13.95937        0.417
        0.94685       14.52613       14.25567        0.417
       15.32544       20.46564       12.88566       -0.834
       15.78979       19.79873       12.37985        0.417
       15.98838       20.82406       13.47582        0.417
       22.65660       12.62222        5.76531       -0.834
       22.79927       11.76963        5.35425        0.417
       22.80976       13.25541        5.06399        0.417
       14.62555       26.57729       27.09356       -0.834
       13.76591       26.68461       26.68640        0.417
       14.54673       27.01710       27.94007        0.417
       22.09630        4.71903       13.61617       -0.834
       22.40378        4.10874       14.28642        0.417
       21.14294        4.63543       13.63467        0.417
       21.47292       17.86254       22.14611       -0.834
       22.37240       18.17155       22.25412        0.417
       21.56129       16.92892       21.95435        0.417
       19.16336        9.08201       18.66571       -0.834
       19.84209        8.46544       18.94030        0.417
       19.64531        9.81202       18.27705        0.417
       28.13587       19.19542       20.42857       -0.834
       28.36019       19.89995       21.03648        0.417
       27.91494       18.45369       20.99183        0.417
       24.00440       12.80013       16.69197       -0.834
       24.84362       13.20094       16.91846        0.417
       23.70608       13.28608       15.92315        0.417
        3.60083       12.59451       12.64075       -0.834
        3.68212       12.94474       11.75365        0.417
        4.47599       12.68834       13.01694        0.417
       18.99728       21.40460       29.60960       -0.834
       18.83675       20.85083       28.84553        0.417
       18.86974       20.82267       30.35881        0.417
        7.75693       15.30556       28.75563       -0.834
        7.01369       15.87944       28.56995        0.417
        8.05417       15.01162       27.89454        0.417
       27.64700       20.04351       23.14174       -0.834
       28.37820       20.49167       23.56688        0.417
       27.43526       19.31855       23.72980        0.417
       13.47499       14.67860       30.59932       -0.834
       13.13301       15.57051       30.53794        0.417
       13.49410       14.49299       31.53816        0.417
       26.53431       26.65511       23.37042       -0.834
       25.73839       26.31088       22.96514        0.417
       26.23717       27.03725       24.19619        0.417
       24.29897       15.98411        6.13844       -0.834
       24.17074       15.55140        5.29431        0.417
       23.54940       15.70813        6.66591        0.417
       17.51888       10.35088       23.63039       -0.834
       17.57861       11.18018       23.15612        0.417
       18.22720       10.39035       24.27300        0.417
        7.38138        9.62647       18.57907       -0.834
        7.12268        9.23483       19.41329        0.417
        8.20952       10.06785       18.76773        0.417
        5.90969       11.60093       14.76226       -0.834
        6.38241       12.23192       14.21947        0.417
        5.96953       10.77664       14.27935        0.417
        5.82606       25.47491       17.64857       -0.834
        5.97667       26.10210       18.35580        0.417
        4.91801       25.62391       17.38500        0.417
       21.36660       12.24200       28.38153       -0.834
       21.06190       12.02693       27.49998        0.417
       22.18184       12.72402       28.24273        0.417
       20.07527        8.19142        5.18368       -0.834
       20.65165        7.62952        5.70164        0.417
       19.45130        8.54471        5.81778        0.417
       18.99994        4.19965       25.09310       -0.834
       19.77908        3.79530       24.71142        0.417
       18.35030        4.17928       24.39041        0.417
       16.46946       18.05073        1.69103       -0.834
       15.82024       18.14312        2.38832        0.417
       17.13073       18.71375        1.88943        0.417
        5.77429        9.09769       22.95144       -0.834
        5.16421        8.74202       23.59760        0.417
        5.67125       10.04678       23.02107        0.417
       14.17084       10.84303       10.53938       -0.834
       14.87202       11.11434        9.94692        0.417
       14.60624       10.70989       11.38138        0.417
       11.89765       27.61597       25.82335       -0.834
       12.60626       28.15903       25.47811        0.417
       11.75169       26.95388       25.14765        0.417
        7.79098       20.17905       11.11008       -0.834
        8.54658       20.68330       10.80836        0.417
        7.69873       19.47660       10.46644        0.417
        7.55090       25.74565       22.47733       -0.834
        7.03849       24.94602       22.35790        0.417
        7.99741       25.62170       23.31489        0.417
       12.18227        5.17560       14.19822       -0.834
       12.62756        5.88430       13.73379        0.417
       11.27646        5.21993       13.89201        0.417
       22.68429       15.78440        8.54682       -0.834
       21.96463       16.35546        8.27812        0.417
       22.89243       16.06392        9.43832        0.417
       24.41535        9.78512       24.60803       -0.834
       24.90894        9.40399       23.88185        0.417
       24.31044        9.06569       25.23064        0.417
       12.74249       30.35781       22.49266       -0.834
       12.13397       31.04833       22.22976        0.417
       12.50090       29.60619       21.95142        0.417
       26.86651        7.75522       18.51137       -0.834
       26.46767        8.56695       18.82483        0.417
       27.17164        7.96317       17.62826        0.417
       11.67819       25.55084       23.81247       -0.834
       11.25447       26.16932       23.21734        0.417
       11.29355       24.70277       23.59097        0.417
       12.44908       14.19358       26.41023       -0.834
       12.36551       13.32462       26.01761        0.417
       12.11101       14.08862       27.29957        0.417
       12.63049       13.50139        5.80572       -0.834
       12.42016       13.30540        6.71873        0.417
       13.45659       13.04486        5.64642        0.417
       27.56163        8.66378       15.89944       -0.834
       27.54921        7.89755       15.32589        0.417
       28.49129        8.84788       16.03388        0.417
       23.14186        8.92578        5.91379       -0.834
       23.34218        9.61381        5.27919        0.417
       23.56240        8.14242        5.55922        0.417
       14.19301       27.57107        8.20647       -0.834
       13.73957       26.93764        8.76272        0.417
       13.91155       28.42456        8.53600        0.417
       16.94221       28.58722        9.88456       -0.834
       16.56088       29.30693       10.38738        0.417
       16.55153       27.79838       10.26051        0.417
        7.00158       12.57518       19.94333       -0.834
        6.53048       12.38240       19.13269        0.417
        6.31306       12.72833       20.59041        0.417
       16.81464       27.30577        6.96447       -0.834
       17.18699       26.70138        7.60657        0.417
       15.97735       27.57291        7.34370        0.417
       11.25010       19.33017       23.48098       -0.834
       11.28577       20.23825       23.18039        0.417
       11.77298       19.32205       24.28271        0.417
       23.31054       24.19699       27.97118       -0.834
       23.40890       23.24897       27.88286        0.417
       22.38324       24.35924       27.79787        0.417
       20.56257       16.43968        6.70791       -0.834
       19.69807       16.82838        6.57453        0.417
       20.40997       15.49557        6.66788        0.417
       10.93979       15.46321        8.09844       -0.834
       11.14019       15.85134        8.95015        0.417
       11.56838       15.86411        7.49813        0.417
       20.46809       20.28948       25.83088       -0.834
       19.75713       19.67118       25.66216        0.417
       20.84411       20.46407       24.96811        0.417
       27.64281       17.17174       17.04818       -0.834
       27.33712       18.05447       17.25695        0.417
       28.58937       17.20668       17.18614        0.417
       12.00353       27.32778        9.84842       -0.834
       11.39931       26.98511        9.18982        0.417
       11.58404       28.12740       10.16604        0.417
       12.20045       18.33574        3.38549       -0.834
       11.83940       18.40607        2.50179        0.417
       11.50059       17.93273        3.89930        0.417
       23.17081       25.82859       21.95573       -0.834
       22.60951       25.63024       21.20617        0.417
       23.35063       26.76566       21.87956        0.417
       25.34922       21.10850       26.74280       -0.834
       24.39415       21.12613       26.80420        0.417
       25.53146       20.52999       26.00229        0.417
        8.99722        5.92377       17.31688       -0.834
        9.70712        6.33830       16.82654        0.417
        8.21446        6.41493       17.06734        0.417
       10.30875       22.88652       24.27494       -0.834
        9.69657       22.81475       23.54261        0.417
       11.08012       22.39549       23.99192        0.417
       12.78929       20.63698       27.26680       -0.834
       13.34290       20.79958       26.50305        0.417
       13.35908       20.80728       28.01685        0.417
        9.49402       13.38207       12.92664       -0.834
        9.82150       12.95266       13.71695        0.417
        8.61234       13.02842       12.80917        0.417
       12.95318        6.10698       11.58056       -0.834
       13.42798        6.67980       10.97834        0.417
       13.50362        5.32737       11.65443        0.417
       24.40201       28.57774       16.37139       -0.834
       25.31543       28.81961       16.52439        0.417
       24.26823       27.79506       16.90595        0.417
        2.97441       22.12014       20.42870       -0.834
        3.32720       22.67351       21.12552        0.417
        3.71814       21.58883       20.14443        0.417
        6.75121        5.07148       14.63752       -0.834
        6.58950        5.87456       15.13263        0.417
        6.58958        4.36641       15.26440        0.417
       30.15300       13.49775       21.71427       -0.834
       30.57557       12.81296       22.23266        0.417
       30.71620       14.26389       21.82410        0.417
       31.18289       12.96839       16.31413       -0.834
       31.15522       12.02233       16.45709        0.417
       32.04966       13.23247       16.62268        0.417
       16.14824       25.44874       18.96002       -0.834
       15.48324       25.48436       18.27246        0.417
       15.89229       26.13419       19.57718        0.417
       12.32479       27.31086       20.76572       -0.834
       13.00658       26.63979       20.73327        0.417
       11.85831       27.13967       21.58384        0.417
       19.07138       29.59687        8.73691       -0.834
       18.96355       29.33115        7.82367        0.417
       18.35322       29.16452        9.19904        0.417
        6.23786       11.72780       17.44340       -0.834
        6.48868       10.88317       17.81746        0.417
        6.07959       11.54279       16.51768        0.417
       21.82251       16.24256       27.05243       -0.834
       22.12169       15.77296       27.83102        0.417
       21.26220       16.93980       27.39322        0.417
        4.51659       18.29636       23.91302       -0.834
        5.28300       18.47848       24.45679        0.417
        4.58984       17.36632       23.69883        0.417
       11.71750       22.82436       16.28371       -0.834
       12.16139       23.67214       16.26214        0.417
       12.25783       22.25651       15.73432        0.417
       18.79330       15.00179       29.90155       -0.834
       18.16404       14.43222       30.34410        0.417
       18.73316       14.75456       28.97879        0.417
       24.14618       18.69588       16.95765       -0.834
       24.07401       18.16863       17.75329        0.417
       23.24504       18.78825       16.64840        0.417
       15.03966       30.44811       11.31324       -0.834
       14.43990       30.19941       12.01656        0.417
       15.59998       31.11981       11.70195        0.417
       16.37582       22.34637       28.79691       -0.834
       16.64872       23.23625       28.57359        0.417
       17.03402       22.04334       29.42235        0.417
       22.76033        5.51811       22.04847       -0.834
       22.17847        5.73412       21.31976        0.417
       23.64180        5.60444       21.68545        0.417
       11.97047       18.00678       27.72773       -0.834
       12.06212       18.93646       27.51910        0.417
       11.07857       17.78718       27.45844        0.417
       16.13447        7.24762       25.46294       -0.834
       16.92246        7.22786       26.00599        0.417
       15.58573        7.92352       25.86078        0.417
       10.13190       16.11330       12.19968       -0.834
        9.61301       15.77520       12.92953        0.417
       11.04061       15.97692       12.46781        0.417
       28.03700       24.22068       20.61391       -0.834
       28.38268       25.09627       20.78734        0.417
       28.74809       23.62891       20.85965        0.417
       13.46768       19.34614       10.49700       -0.834
       14.20941       19.01868       11.00581        0.417
       12.79036       19.52642       11.14890        0.417
       15.81418       13.55019       28.83572       -0.834
       14.90425       13.71050       29.08586        0.417
       16.12331       14.39242       28.50209        0.417
       23.27063       13.04496        8.35087       -0.834
       22.92471       13.93368        8.43300        0.417
       22.95088       12.74052        7.50157        0.417
       23.57368       16.67186       29.56261       -0.834
       24.35134       17.22546       29.49195        0.417
       23.55176       16.40501       30.48160        0.417
       23.14748       20.32704       21.29475       -0.834
       23.67607       19.54163       21.15353        0.417
       22.68371       20.45615       20.46742        0.417
       25.00759       18.20256        4.42092       -0.834
       24.81379       17.69238        5.20730        0.417
       24.16298       18.29383        3.97986        0.417
       21.55303       27.91484       20.02776       -0.834
       21.13566       28.38679       19.30714        0.417
       20.82777       27.65199       20.59445        0.417
        7.10695       16.17042       13.16548       -0.834
        6.53890       16.87557       12.85514        0.417
        7.35324       16.43334       14.05230        0.417
        4.56422       17.06649       18.44747       -0.834
        3.80825       17.52843       18.08506        0.417
        4.51757       16.19117       18.06293        0.417
        4.97041       14.83936       25.74918       -0.834
        5.07057       13.88847       25.79391        0.417
        5.07545       15.13455       26.65365        0.417
       17.76658       23.45813       12.54534       -0.834
       17.09716       23.13147       13.14650        0.417
       17.87698       22.75574       11.90449        0.417
       12.02000       30.87900       19.02119       -0.834
       12.90096       30.74369       18.67215        0.417
       11.54403       30.08227       18.78688        0.417
       16.02717       19.16685        6.92217       -0.834
       15.71303       19.47641        6.07263        0.417
       15.24815       18.81384        7.35200        0.417
       12.01888        2.65898       12.63290       -0.834
       11.13728        2.90883       12.90967        0.417
       12.59873        3.23946       13.12591        0.417
       16.51322        4.77526        8.69971       -0.834
       17.08912        5.53194        8.80921        0.417
       16.46623        4.38138        9.57085        0.417
       21.26025       30.66092       13.03662       -0.834
       20.36134       30.33604       12.98524        0.417
       21.35710       30.95688       13.94175        0.417
       23.96985       24.77364       16.91628       -0.834
       23.63177       25.22384       17.69039        0.417
       24.91109       24.69944       17.07375        0.417
        8.89982       29.10960       20.82528       -0.834
        9.43762       29.07558       20.03419        0.417
        8.47515       29.96672       20.79009        0.417
       18.62052       16.79780       10.02528       -0.834
       19.33758       16.16416       10.00134        0.417
       17.82985       16.26976        9.91466        0.417
       10.67109        7.24001        8.93131       -0.834
        9.71546        7.23335        8.98567        0.417
       10.91988        8.12796        9.18797        0.417
        9.01548       11.76207       21.87403       -0.834
        9.15681       10.87318       21.54825        0.417
        8.41623       12.15729       21.24083        0.417
       23.71567       17.92497       25.31172       -0.834
       23.20150       17.19146       25.64909        0.417
       23.10147       18.65882       25.29031        0.417
       27.41434       23.26891       25.12681       -0.834
       26.69466       23.23683       24.49652        0.417
       26.98398       23.29129       25.98152        0.417
       11.28799       19.28036       12.17425       -0.834
       10.45570       19.09735       11.73833        0.417
       11.10424       19.15403       13.10511        0.417
        7.49140       13.91007       16.62427       -0.834
        8.18223       13.51343       16.09354        0.417
        6.87062       13.19849       16.78085        0.417
        9.53230        3.26263       13.11748       -0.834
        9.51280        4.20206       12.93492        0.417
        8.61663        3.02855       13.26906        0.417
        5.34245       20.96973       22.22237       -0.834
        4.77823       20.29992       22.60867        0.417
        6.21053       20.56716       22.19760        0.417
        6.95508       27.07951       20.12512       -0.834
        7.19762       26.80870       21.01060        0.417
        7.69665       27.60391       19.82295        0.417
        8.72638       15.71606        6.27984       -0.834
        8.03041       15.32281        6.80634        0.417
        9.53626       15.37531        6.65959        0.417
       26.87922       11.28063       21.90310       -0.834
       27.30650       10.46601       22.16778        0.417
       27.36888       11.96679       22.35658        0.417
       16.82359       20.42616       26.75570       -0.834
       17.24336       19.71238       27.23584        0.417
       16.63324       21.08515       27.42333        0.417
       18.94209       24.97571       18.78404       -0.834
       19.15133       25.61711       18.10502        0.417
       18.00809       25.10042       18.95233        0.417
        4.64478       18.91945       12.99229       -0.834
        3.71065       18.75636       13.12280        0.417
        4.76603       18.87447       12.04387        0.417
       17.76843        5.67285       15.00956       -0.834
       17.13139        5.75567       15.71917        0.417
       18.38645        6.38874       15.15710        0.417
       11.77855       17.08066       10.19324       -0.834
       11.49463       16.88002       11.08507        0.417
       12.48293       17.71934       10.30359        0.417
        6.01388       22.13439       12.43313       -0.834