%Nproc=32
%Mem=120Gb
%chk=temp.chk
#p cam-b3lyp/6-31+G(d,p) nosymm charge Freq 

Calculation for S0 with freq for abs spect

0  1
 C         15.67001       17.52951       16.07990
 C         17.29263       15.73382       15.50664
 C         17.69386       15.59301       16.75284
 C         17.02629       16.30618       17.76575
 N         16.02668       17.20797       17.42578
 H         17.67125       15.12497       14.63812
 H         18.45954       14.96849       17.03646
 O         17.17321       16.07324       18.97937
 O         14.84122       18.33227       15.79511
 N         16.36929       16.69331       15.18925
 H         15.95504       16.77448       14.32139
 H         15.50575       17.72944       18.15479
 O         17.24652       19.14442       20.55329
 H         17.68485       18.32187       20.77124
 H         17.85102       19.58821       19.95843
 O         14.85845       18.12733       21.41694
 H         14.87142       17.22937       21.08569
 H         15.59676       18.55417       20.98226
 O         20.48474       15.55517       17.16214
 H         20.17188       14.91714       17.80344
 H         20.60243       15.04932       16.35809
 O         20.29541       13.93137       14.68156
 H         20.11867       14.20880       13.78266
 H         20.77835       13.11016       14.58871
 O         14.68461       15.37547       20.22724
 H         15.30919       14.66493       20.37308
 H         13.84924       14.93336       20.07578
 O         13.17804       16.58342       13.95270
 H         13.90818       16.02158       14.21243
 H         13.58380       17.28272       13.44029
 O         19.79477       18.30307       16.71809
 H         19.86719       17.51459       17.25595
 H         18.92217       18.64592       16.91111
 O         20.97533       17.37610       14.18103
 H         20.62108       17.30998       15.06780
 H         20.34374       17.91986       13.71023
 O         17.41217       16.37160       21.47687
 H         16.75123       15.71228       21.68826
 H         17.84248       16.55631       22.31171
 O         18.19635       20.83756       18.29153
 H         18.49987       21.73961       18.39354
 H         17.64260       20.85749       17.51102
 O         14.83328       14.21266       14.96121
 H         13.89591       14.27232       14.77681
 H         14.88100       13.86706       15.85257
 O         14.93309       15.30636       11.71236
 H         14.90349       15.38223       10.75863
 H         14.90343       16.21022       12.02604
 O         19.81536       13.49412       18.91975
 H         19.41613       13.69777       19.76554
 H         19.77997       12.53936       18.86133
 O         12.61155       18.80349       16.36150
 H         12.32181       19.53840       16.90204
 H         13.35136       18.43018       16.84061
 O         16.31568       12.48882       13.69365
 H         16.43351       12.74870       12.77997
 H         15.91819       13.25298       14.11115
 O         14.98415       20.50366       19.24135
 H         14.83309       19.77227       18.64262
 H         15.84044       20.32333       19.62928
 O         18.23190       15.97968       11.90229
 H         18.93718       16.54610       11.58926
 H         17.96885       16.36385       12.73862
 O         15.15612       18.31670       12.80037
 H         15.52210       18.43819       11.92429
 H         14.97126       19.20394       13.10838
 O         17.01394       20.55797       15.79295
 H         17.82253       20.92136       15.43189
 H         16.32099       21.11432       15.43724
 O         14.72712       13.18899       17.37582
 H         14.16296       13.43095       18.11026
 H         15.18556       12.40340       17.67401
 
       13.74675       22.36621        3.97379       -0.834
       13.04146       22.68411        3.41012        0.417
       14.46868       22.97614        3.82201        0.417
       23.19412       23.46980       25.40968       -0.834
       23.42168       24.39619       25.33064        0.417
       22.54512       23.32255       24.72168        0.417
       31.46496       14.79672       12.98789       -0.834
       32.04766       14.10265       12.67972        0.417
       30.69035       14.72500       12.43016        0.417
       18.95013       27.78278       25.89383       -0.834
       18.87484       26.93283       25.46008        0.417
       19.79381       28.12757       25.60134        0.417
       12.24869        3.29296       11.96954       -0.834
       11.63707        3.04762       12.66377        0.417
       13.07861        2.89227       12.22822        0.417
       14.43103       22.64459       17.94632       -0.834
       14.68586       21.91890       18.51611        0.417
       14.69765       22.36671       17.07000        0.417
       14.67340       30.23666       11.66718       -0.834
       13.83605       30.41370       12.09584        0.417
       15.26906       30.89638       12.02240        0.417
       11.30705       21.34486        8.37314       -0.834
       11.19388       22.01501        9.04718        0.417
       10.41588       21.07639        8.14963        0.417
       23.31989        9.90395       22.25069       -0.834
       23.80107       10.09888       21.44651        0.417
       23.46572        8.96931       22.39704        0.417
       24.39690       21.00448       16.65240       -0.834
       25.00339       21.39411       17.28215        0.417
       23.82733       20.44613       17.18162        0.417
       15.97527       10.93920       18.80334       -0.834
       15.74461       11.27572       19.66925        0.417
       15.48577       10.12029       18.72592        0.417
       19.12705       15.06845       28.80178       -0.834
       18.84115       15.50280       29.60542        0.417
       18.31764       14.75878       28.39535        0.417
        2.66709       15.06885       12.66942       -0.834
        2.12113       15.85443       12.63751        0.417
        2.05279       14.35676       12.84772        0.417
       15.23889        9.02298        4.92155       -0.834
       15.45448        9.72674        4.30961        0.417
       15.48174        8.22054        4.45966        0.417
       14.99924       17.20564        7.01864       -0.834
       15.80261       17.69753        6.84874        0.417
       14.30355       17.86206        6.98160        0.417
       20.89952       20.29720       19.43919       -0.834
       20.42044       19.55180       19.80126        0.417
       20.22553       20.83957       19.02954        0.417
       24.59559       19.74955        5.88851       -0.834
       24.95933       18.98636        6.33736        0.417
       23.76807       19.92059        6.33815        0.417
       17.42373        6.51918       10.61623       -0.834
       18.18675        6.08948       10.22970        0.417
       17.62195        7.45408       10.56250        0.417
        9.27865       24.19064       23.25651       -0.834
        9.03509       23.38438       22.80171        0.417
       10.21257       24.08965       23.44046        0.417
       10.92034       18.79786       29.69327       -0.834
       10.09528       18.32203       29.59793        0.417
       11.36341       18.36605       30.42365        0.417
       11.49422        6.03941       11.16010       -0.834
       11.61674        5.22170       11.64236        0.417
       10.71140        6.43133       11.54717        0.417
        3.46938       11.02530       11.58991       -0.834
        2.53003       10.87262       11.69262        0.417
        3.79656       11.11877       12.48459        0.417
       18.83593        2.00352       12.58874       -0.834
       18.00465        2.14215       12.13489        0.417
       18.94046        2.77885       13.14025        0.417
        5.75882        5.85230       17.36567       -0.834
        6.17910        5.09809       17.77890        0.417
        6.38806        6.14674       16.70719        0.417
       22.91996       26.29421       16.81635       -0.834
       23.53084       25.65261       17.17884        0.417
       22.28403       26.44222       17.51628        0.417
       22.59001       16.80025        3.63219       -0.834
       23.32854       17.03996        4.19195        0.417
       21.82699       17.18437        4.06403        0.417
       20.37211       29.59924       14.25126       -0.834
       19.64476       29.30340       14.79868        0.417
       21.10099       29.71250       14.86128        0.417
       24.72808       25.08493       18.84205       -0.834
       24.90512       24.16490       19.03811        0.417
       25.59130       25.46695       18.68354        0.417
       18.31529       23.20434       26.10096       -0.834
       19.04259       22.59541       25.97265        0.417
       17.82156       22.83736       26.83430        0.417
        7.36589        9.73084        7.12270       -0.834
        8.16146        9.79278        6.59407        0.417
        7.51965        8.98381        7.70110        0.417
       23.24172       19.83856       13.66473       -0.834
       22.75293       19.96726       12.85187        0.417
       22.61855       20.05914       14.35699        0.417
       10.54719       27.22309       20.09427       -0.834
       10.66918       28.02159       20.60783        0.417
       10.94401       26.53295       20.62575        0.417
       20.52788       12.55626       30.27796       -0.834
       21.29859       13.07894       30.49943        0.417
       19.78521       13.10542       30.52915        0.417
       20.01270       21.60971        4.66844       -0.834
       20.68246       21.75619        4.00045        0.417
       20.43299       21.86492        5.48969        0.417
       19.72593        8.04479        7.55935       -0.834
       19.29275        7.19129        7.54852        0.417
       19.06088        8.65550        7.24160        0.417
       18.45971        9.36426       17.06990       -0.834
       18.52667        9.92689       17.84139        0.417
       17.57296        9.00610       17.11032        0.417
       15.39060       19.13195       29.26767       -0.834
       16.23536       19.42670       29.60787        0.417
       14.75724       19.39888       29.93389        0.417
       14.66645       21.30489       12.94374       -0.834
       15.12666       21.12195       12.12461        0.417
       13.75883       21.05539       12.76996        0.417
       28.14529       21.98576       13.10681       -0.834
       27.32791       21.56888       13.37945        0.417
       28.80816       21.30252       13.20683        0.417
       23.45395       16.03637       18.26296       -0.834
       23.59883       15.13518       17.97467        0.417
       22.55208       16.22844       18.00613        0.417
       11.38499       10.33639       14.41461       -0.834
       12.13095       10.58119       13.86703        0.417
       10.69508       10.95317       14.16999        0.417
       10.56579       19.12391        4.35376       -0.834
        9.84945       18.69687        3.88395        0.417
       10.26236       19.17355        5.26024        0.417
       11.94040       16.38402        8.39637       -0.834
       12.66751       17.00630        8.37897        0.417
       11.30232       16.74320        7.77987        0.417
        8.11687       18.94053       26.85186       -0.834
        8.39635       19.74049       27.29705        0.417
        7.62801       19.24879       26.08883        0.417
       12.22728        6.05242        8.58999       -0.834
       11.36519        6.31116        8.26427        0.417
       12.10756        5.95489        9.53465        0.417
       10.97114       18.73000       22.40244       -0.834
       11.25940       18.64631       21.49352        0.417
       11.72777       19.09463       22.86155        0.417
        8.51998        4.34041       11.97973       -0.834
        7.68508        4.53441       11.55365        0.417
        8.62560        5.03611       12.62863        0.417
       24.71807        8.17734       14.25556       -0.834
       23.79175        8.26122       14.02942        0.417
       24.79544        8.59962       15.11108        0.417
       12.76480       14.54873       28.67732       -0.834
       13.36196       15.19051       28.29295        0.417
       11.92155       14.99982       28.71808        0.417
       15.59875        2.47640       17.28489       -0.834
       14.87994        2.96048       16.87842        0.417
       15.17729        1.72251       17.69751        0.417
       10.85120       13.95948        7.54331       -0.834
       11.40112       14.70135        7.79518        0.417
       10.35576       13.74842        8.33466        0.417
       12.51954        8.53109        4.75102       -0.834
       12.44342        7.59904        4.95529        0.417
       13.44788        8.72885        4.87474        0.417
        9.93344       15.51633       13.69085       -0.834
       10.86512       15.29772       13.67039        0.417
        9.84755       16.13300       14.41788        0.417
        9.04376       21.66724       14.84119       -0.834
        9.37362       22.20154       14.11873        0.417
        9.25944       20.76833       14.59283        0.417
       20.58649       11.92288       27.40082       -0.834
       20.55816       11.93180       28.35755        0.417
       20.89404       12.79721       27.16167        0.417
       15.72296        1.94427       12.24009       -0.834
       15.73524        2.58387       12.95212        0.417
       15.94842        2.45000       11.45929        0.417
       29.20899       16.17369       26.16904       -0.834
       29.45838       16.98201       26.61699        0.417
       28.28889       16.30138       25.93806        0.417
        7.55691        8.14311       18.97096       -0.834
        7.17027        9.01011       18.84828        0.417
        7.49818        7.73006       18.10947        0.417
        3.85998       20.41961       13.62311       -0.834
        3.20777       20.43500       14.32355        0.417
        4.69223       20.27493       14.07328        0.417
       16.75882       14.01749        7.92948       -0.834
       17.42185       14.70786        7.92678        0.417
       16.90644       13.54618        8.74942        0.417
       19.45181        6.81669       14.13004       -0.834
       18.96275        7.22584       13.41614        0.417
       19.15763        5.90581       14.13130        0.417
       26.30090       22.61200       18.23805       -0.834
       26.00868       22.42360       19.12987        0.417
       27.24227       22.76417       18.32107        0.417
       21.35405        5.37842       18.18692       -0.834
       20.46237        5.33210       18.53186        0.417
       21.65995        4.47142       18.18994        0.417
        7.25056       13.36050       17.11014       -0.834
        6.82060       14.08197       16.65096        0.417
        8.18341       13.57070       17.06720        0.417
       21.88723       25.51699        6.61911       -0.834
       22.48345       25.49993        5.87047        0.417
       21.87654       26.43304        6.89656        0.417
       18.52318       21.44865       12.20199       -0.834
       18.04709       20.64240       12.00314        0.417
       18.65737       21.42068       13.14932        0.417
       19.95431       28.30257       22.29979       -0.834
       19.64946       29.19789       22.15244        0.417
       20.59010       28.14752       21.60125        0.417
        8.95471       22.20630       20.96488       -0.834
        8.21166       22.54063       20.46257        0.417
        9.70939       22.68821       20.62657        0.417
       11.96178       12.86903       25.59741       -0.834
       11.80936       12.01315       25.19681        0.417
       11.84363       13.49349       24.88163        0.417
       13.02741       11.28959       12.75726       -0.834
       13.13954       12.24018       12.75024        0.417
       13.02558       11.04132       11.83281        0.417
       27.27906        9.41553       26.06549       -0.834
       26.81029        9.84936       25.35255        0.417
       28.06766        9.94348       26.19044        0.417
       17.95214       19.56571       29.83298       -0.834
       18.50455       19.46869       29.05731        0.417
       18.55947       19.81099       30.53099        0.417
       16.45537        3.65870        9.87771       -0.834
       15.83526        3.87701        9.18199        0.417
       16.83909        4.49871       10.12946        0.417
       26.16868       16.12008       26.40365       -0.834
       25.34758       16.24670       26.87904        0.417
       26.22801       16.87736       25.82121        0.417
        4.66396       13.89627       14.11726       -0.834
        4.18989       13.16938       14.52115        0.417
        4.04102       14.27336       13.49598        0.417
       15.56459        9.70655       13.48283       -0.834
       15.32211        9.85778       12.56928        0.417
       16.08480       10.47327       13.72313        0.417
        9.79525       14.29274       16.82524       -0.834
       10.60149       13.95772       16.43285        0.417
        9.73171       15.19440       16.51028        0.417
       12.32632       10.03128       17.53799       -0.834
       11.82582        9.50423       16.91513        0.417
       13.10187       10.30763       17.04975        0.417
       21.33466       28.67350       25.06034       -0.834
       21.92620       27.98332       24.76039        0.417
       21.26885       29.27298       24.31702        0.417
       12.55754       26.27409       22.29084       -0.834
       13.36985       26.34641       21.78969        0.417
       12.46184       27.12583       22.71700        0.417
       17.94509       10.91288        3.68345       -0.834
       17.05447       11.10460        3.38972        0.417
       18.50130       11.17422        2.94958        0.417
       20.83864       23.37574       16.53503       -0.834
       20.85693       24.33177       16.57885        0.417
       20.36775       23.10830       17.32432        0.417
       22.75157        6.70661       20.22133       -0.834
       22.17320        7.42672       19.97001        0.417
       22.85176        6.18920       19.42228        0.417
       23.64555       17.34887        9.25839       -0.834
       24.30252       16.76575        8.87812        0.417
       24.14966       17.96161        9.79379        0.417
       10.20360        3.68088       19.74973       -0.834
        9.38053        3.69274       20.23823        0.417
       10.53405        4.57689       19.81449        0.417
       11.92272       10.15261       24.78652       -0.834
       12.76697        9.82074       24.48099        0.417
       11.78278        9.71547       25.62649        0.417
        6.01715        7.72650       14.28161       -0.834
        5.14492        8.10497       14.39203        0.417
        6.28200        7.98726       13.39952        0.417
       24.82691       10.48424       27.61007       -0.834
       25.55700       10.12213       27.10800        0.417
       24.96957       10.16889       28.50250        0.417
       26.37059       13.62641       19.23538       -0.834
       27.03646       13.97045       19.83077        0.417
       25.53848       13.89397       19.62557        0.417
       24.14499       14.38833       20.98617       -0.834
       23.41189       14.07834       21.51787        0.417
       24.83963       14.57159       21.61872        0.417
        4.24881       24.43648       15.21474       -0.834
        5.18799       24.60726       15.14391        0.417
        3.86825       24.86665       14.44900        0.417
       11.33344       20.33120       24.52065       -0.834
       10.75581       19.82746       23.94721        0.417
       10.77278       21.01682       24.88371        0.417
       17.26710       22.06781        3.33215       -0.834
       18.13183       22.23610        3.70652        0.417
       16.76816       22.86445        3.51289        0.417
        9.00144       13.08272        9.53084       -0.834
        9.28798       13.82231       10.06668        0.417
        8.87083       12.36976       10.15604        0.417
       25.11692        4.75752       15.81721       -0.834
       25.28957        4.67900       16.75543        0.417
       24.22865        5.11039       15.76535        0.417
       20.26457       10.57702       22.27176       -0.834
       21.18580       10.31958       22.23581        0.417
       20.26211       11.49730       22.00851        0.417
       27.06220       13.80943       24.89803       -0.834
       27.97991       13.78233       25.16878        0.417
       26.70423       14.57934       25.34000        0.417
       27.35532       16.16296       10.39777       -0.834
       26.69522       16.39262       11.05180        0.417
       26.89911       16.23826        9.55966        0.417
        9.58114       19.18804       13.78860       -0.834
        9.52156       18.78691       12.92155        0.417
        9.06114       18.61658       14.35364        0.417
       13.72951       21.11102       23.87526       -0.834
       14.08248       21.13202       24.76476        0.417
       12.83851       20.77679       23.97847        0.417
        9.73563       11.58036       19.25936       -0.834
        9.78370       12.47790       19.58852        0.417
       10.62114       11.23521       19.37327        0.417
       14.74138       28.32239        9.78069       -0.834
       14.71617       29.10245       10.33485        0.417
       14.78855       28.66382        8.88770        0.417
       27.07365       17.55747       24.16396       -0.834
       27.54771       17.24058       23.39515        0.417
       27.15719       18.51008       24.12161        0.417
       18.62488       16.76616       30.88605       -0.834
       18.09511       17.54910       30.73586        0.417
       19.27899       17.03880       31.52951        0.417
       16.57915        7.07680       16.48495       -0.834
       16.60888        7.27710       15.54941        0.417
       16.72789        6.13245       16.53303        0.417
       20.74918       23.61234       29.63709       -0.834
       21.28717       23.00164       29.13325        0.417
       21.21314       24.44737       29.57630        0.417
        9.10022       26.87855       12.61724       -0.834
        9.04219       26.20150       11.94309        0.417
        8.27330       27.35593       12.54973        0.417
       16.23603       12.94283       20.83051       -0.834
       15.72092       12.33293       21.35863        0.417
       17.02146       13.10781       21.35215        0.417
       25.69903        5.01610       18.66482       -0.834
       26.30069        4.91680       19.40264        0.417
       25.03418        4.34186       18.80489        0.417
       19.88531       17.96327       20.46973       -0.834
       20.78955       17.66606       20.57093        0.417
       19.37522       17.37317       21.02455        0.417
       19.57225       15.75858        2.76437       -0.834
       18.95613       16.49097        2.74907        0.417
       19.02922       14.98494        2.61327        0.417
       26.27023       11.21219       24.21361       -0.834
       26.96104       11.41182       23.58181        0.417
       26.15764       12.02272       24.71020        0.417
       10.58935       14.20742       19.53494       -0.834
       10.21705       14.25519       18.65441        0.417
       10.26550       14.99316       19.97537        0.417
       18.28587       30.04889       11.70964       -0.834
       17.74098       30.81708       11.88054        0.417
       18.76878       29.91109       12.52453        0.417
       14.17633       25.38913        6.66149       -0.834
       14.54837       25.34406        7.54228        0.417
       13.67582       24.57829        6.57061        0.417
       12.63035       29.17749       15.95144       -0.834
       11.72876       29.06653       16.25318        0.417
       13.03989       29.73015       16.61707        0.417
       12.42982       25.67515       17.64374       -0.834
       11.68236       26.25255       17.48831        0.417
       12.59213       25.25947       16.79692        0.417
       18.78380        4.14129       18.94570       -0.834
       19.25544        3.31734       18.82363        0.417
       18.82950        4.30673       19.88739        0.417
       20.33668       14.72818       24.10976       -0.834
       20.69417       14.64628       24.99391        0.417
       20.02033       15.63029       24.06142        0.417
       17.83124        4.64076       13.59085       -0.834
       17.35850        5.47004       13.51992        0.417
       17.62271        4.31991       14.46823        0.417
       28.41370       23.21519       10.76786       -0.834
       28.48445       22.74002       11.59577        0.417
       27.66130       23.79472       10.88731        0.417
       27.95226       11.96244       12.63178       -0.834
       28.62833       11.29167       12.53570        0.417
       27.83159       12.04782       13.57750        0.417
       25.96616        6.77762       12.44679       -0.834
       25.69841        7.33999       13.17362        0.417
       26.55352        6.13487       12.84443        0.417
       18.08417       29.13373       15.65509       -0.834
       17.81664       28.46100       16.28126        0.417
       17.27915       29.61317       15.45939        0.417
       14.87727       22.70793       28.63050       -0.834
       15.83222       22.76190       28.66780        0.417
       14.62283       22.36247       29.48616        0.417
       23.76245       25.74828       21.63512       -0.834
       23.52512       25.16639       20.91310        0.417
       23.58429       26.62808       21.30279        0.417
       21.61236       22.98726        7.00591       -0.834
       22.51511       22.90813        7.31416        0.417
       21.55932       23.87140        6.64299        0.417
       12.82671        3.41437       16.84029       -0.834
       12.64858        3.73299       17.72515        0.417
       12.46504        4.08859       16.26510        0.417
       24.33584       24.88437        8.58255       -0.834
       24.14674       24.37200        7.79645        0.417
       23.49927       24.93145        9.04533        0.417
       24.65258       15.66892        5.95646       -0.834
       25.33980       15.43031        5.33435        0.417
       23.96962       15.01159        5.82340        0.417
        7.96457       28.69157       15.14253       -0.834
        7.26596       28.33038       15.68817        0.417
        7.59740       28.70246       14.25862        0.417
       18.89501       25.44937       24.29412       -0.834
       18.75596       24.64425       24.79280        0.417
       18.02227       25.69559       23.98764        0.417
        8.24708        7.27262       21.48842       -0.834
        8.00585        7.51588       20.59463        0.417
        9.11810        7.64952       21.61293        0.417
       12.46709       17.31195        2.81350       -0.834
       11.76182       17.95841        2.84382        0.417
       13.17315       17.70275        3.32825        0.417
       28.16630       10.20434        9.79882       -0.834
       27.27388       10.54742        9.75282        0.417
       28.10872        9.46640       10.40574        0.417
       15.22452       22.52546       15.20665       -0.834
       15.11253       22.08955       14.36186        0.417
       15.99584       23.08018       15.09009        0.417
        5.45307       25.80567       19.21278       -0.834
        5.39819       26.37043       19.98367        0.417
        4.58663       25.40414       19.14728        0.417
       27.53034       21.07451       26.70157       -0.834
       26.68819       20.62020       26.72650        0.417
       28.18068       20.37287       26.66996        0.417
        9.76888       25.87483       15.24660       -0.834
        9.59027       26.21842       14.37123        0.417
        9.66817       26.63006       15.82601        0.417
       25.35850       19.13780       10.66691       -0.834
       25.81382       19.46908        9.89285        0.417
       24.92948       19.90750       11.04073        0.417
       18.36442       23.67474       17.74929       -0.834
       18.15148       24.10942       16.92349        0.417
       17.82198       24.11878       18.40107        0.417
       11.03348        9.38905        8.81149       -0.834
       10.53214        9.43464        9.62562        0.417
       11.88808        9.75778        9.03493        0.417
       23.83880       14.29121       25.57308       -0.834
       24.05054       13.53244       25.02932        0.417
       23.93173       15.04104       24.98541        0.417
       24.95446       13.48322       28.08199       -0.834
       25.24754       14.38659       27.96258        0.417
       24.34363       13.33177       27.36075        0.417
       20.19954       12.82561        9.05202       -0.834
       20.95272       12.39743        9.45898        0.417
       19.46095       12.24914        9.24796        0.417
        8.17816       13.19929       24.87975       -0.834
        7.72849       12.62942       25.50368        0.417
        8.41757       12.62076       24.15572        0.417
       16.33865       21.52840        6.12959       -0.834
       16.25012       21.11960        5.26861        0.417
       17.09022       22.11448        6.04084        0.417
       16.55066        7.16994       13.49403       -0.834
       16.71163        7.05934       12.55696        0.417
       16.01183        7.95884       13.55349        0.417
       13.51945       13.03653        4.24192       -0.834