%Nproc=32
%Mem=120Gb
%chk=temp.chk
#p cam-b3lyp/6-31+G(d,p) nosymm charge Freq 

Calculation for S0 with freq for abs spect

0  1
 C         15.67001       17.52951       16.07990
 C         17.29263       15.73382       15.50664
 C         17.69386       15.59301       16.75284
 C         17.02629       16.30618       17.76575
 N         16.02668       17.20797       17.42578
 H         17.67125       15.12497       14.63812
 H         18.45954       14.96849       17.03646
 O         17.17321       16.07324       18.97937
 O         14.84122       18.33227       15.79511
 N         16.36929       16.69331       15.18925
 H         15.95504       16.77448       14.32139
 H         15.50575       17.72944       18.15479
 O         15.88777       19.17811       20.78070
 H         15.90306       18.71514       19.94305
 H         15.66965       18.50351       21.42380
 O         20.93235       13.56098       15.03841
 H         20.09860       13.11409       14.89221
 H         20.76163       14.15419       15.76998
 O         13.99935       12.40322       17.45512
 H         13.15901       12.86145       17.46377
 H         14.36559       12.55710       18.32599
 O         18.64348       18.44212       19.65624
 H         17.85057       18.97131       19.74283
 H         19.33126       18.97280       20.05819
 O         12.75518       18.24480       15.43692
 H         12.96935       17.75367       14.64373
 H         12.02797       18.81141       15.17935
 O         19.23622       13.86377       19.11848
 H         19.55953       14.26373       18.31118
 H         19.77305       14.25107       19.80990
 O         19.95294       19.72273       16.92595
 H         19.68660       19.27210       16.12456
 H         19.19841       19.64112       17.50926
 O         20.04309       17.13965       12.75025
 H         19.66021       17.42540       13.57969
 H         20.89005       16.76561       12.99312
 O         20.05494       15.53284       17.07410
 H         20.55022       16.07566       17.68751
 H         19.87388       16.11169       16.33357
 O         17.39928       14.22167       12.42243
 H         17.44203       15.00736       11.87737
 H         16.91523       13.58816       11.89272
 O         18.66493       12.52156       14.06543
 H         18.18026       13.05690       13.43715
 H         17.98819       12.05160       14.55266
 O         12.20768       19.18657       18.21436
 H         12.58471       19.03990       17.34685
 H         11.74659       18.37245       18.41641
 O         16.64296       20.53711       17.93974
 H         15.83571       20.82083       18.36878
 H         16.66480       21.02999       17.11948
 O         17.06723       15.97319       20.72566
 H         17.82980       16.54149       20.61728
 H         16.67466       15.92947       19.85376
 O         12.35912       15.69141       16.84384
 H         12.38001       16.56724       16.45818
 H         12.13329       15.11355       16.11493
 O         16.42932       18.16746       12.07918
 H         16.52834       17.62641       11.29579
 H         16.71162       17.60240       12.79837
 O         13.09913       16.15144       13.51687
 H         12.31575       16.52503       13.11317
 H         13.09605       15.23424       13.24308
 
       10.08523       26.47173        7.00508       -0.834
       10.93690       26.16979        7.32088        0.417
        9.97004       26.02848        6.16455        0.417
       10.98720        9.04892        5.74445       -0.834
       11.32303        8.15291        5.71933        0.417
       10.03729        8.95110        5.67862        0.417
       23.76542       10.01897       25.20168       -0.834
       24.49083        9.40649       25.07970        0.417
       23.55632       10.32232       24.31823        0.417
       10.84848       25.89923       10.76828       -0.834
       11.28027       25.13484       11.14974        0.417
        9.93910       25.62589       10.64772        0.417
        2.76321       12.54937       13.19590       -0.834
        3.23650       13.30082       12.83876        0.417
        2.40475       12.86389       14.02585        0.417
       13.59145       18.40041       31.24338       -0.834
       13.92848       18.23061       32.12304        0.417
       13.20686       17.56795       30.96890        0.417
        9.10471       21.68948        9.62192       -0.834
        9.56865       22.39342       10.07520        0.417
        9.79716       21.10327        9.31679        0.417
        7.90187       26.84416       11.70604       -0.834
        7.56302       25.98922       11.44055        0.417
        7.71664       27.41728       10.96209        0.417
       27.09657       24.04172       11.97485       -0.834
       27.74655       24.00108       12.67636        0.417
       27.04104       23.14419       11.64685        0.417
       13.44298       13.94015       28.39342       -0.834
       14.32080       14.15994       28.08140        0.417
       13.38831       12.98856       28.30553        0.417
        8.50266       19.87032       20.49461       -0.834
        8.89053       19.04125       20.77465        0.417
        8.85039       20.01270       19.61424        0.417
       17.03775       27.52655       15.72260       -0.834
       17.04570       28.47328       15.86356        0.417
       16.64938       27.16833       16.52078        0.417
       30.28556       12.31558       16.77739       -0.834
       29.52096       12.88230       16.87956        0.417
       30.06728       11.74916       16.03729        0.417
        9.68670       20.20118       17.94119       -0.834
        9.72977       21.01925       17.44609        0.417
       10.59621       19.90895       18.00143        0.417
        6.27869       16.67928       25.21355       -0.834
        5.76498       17.12722       25.88562        0.417
        5.83728       15.83826       25.09490        0.417
       27.06314       13.76869       12.74377       -0.834
       26.23718       13.43227       12.39613        0.417
       26.80191       14.40833       13.40623        0.417
       14.93856        2.27142       10.74218       -0.834
       15.19201        2.76400       11.52279        0.417
       15.32156        1.40371       10.87110        0.417
       27.30944       10.52233        9.57275       -0.834
       27.47396        9.68211        9.14475        0.417
       27.89411       10.52415       10.33064        0.417
       19.12074       18.21950       23.75124       -0.834
       19.79141       17.53665       23.73909        0.417
       19.55523       18.97562       24.14588        0.417
       18.17487        9.26737        9.33677       -0.834
       18.80323        9.98939        9.32795        0.417
       17.95261        9.15393       10.26088        0.417
       15.77231       12.55782        5.36389       -0.834
       15.81267       12.88672        4.46588        0.417
       16.53990       11.99201        5.44696        0.417
        6.90444       13.90265       28.00499       -0.834
        7.11401       13.33516       27.26319        0.417
        7.44919       13.57386       28.72010        0.417
        7.27486        9.74950       11.06008       -0.834
        7.31477       10.38725       11.77276        0.417
        6.76511        9.02223       11.41711        0.417
       19.61358        8.84172       27.39559       -0.834
       19.41764        9.31945       28.20158        0.417
       20.56272        8.71914       27.41398        0.417
       15.12847       29.57132       14.04376       -0.834
       16.01888       29.90733       13.94132        0.417
       14.85031       29.35358       13.15412        0.417
        9.92436       27.83306       15.36402       -0.834
       10.58071       27.13636       15.35645        0.417
        9.99765       28.22236       16.23540        0.417
        9.83403       10.03349       27.55215       -0.834
        9.01981       10.38967       27.19659        0.417
        9.59275        9.69941       28.41609        0.417
       11.67823        3.51471       17.71144       -0.834
       11.33052        4.33965       18.05026        0.417
       11.24211        3.39916       16.86724        0.417
        7.05912       23.94194        6.52596       -0.834
        6.78768       23.37209        7.24556        0.417
        8.01217       23.85712        6.49906        0.417
        8.76538        5.27934       14.90067       -0.834
        9.29576        4.51235       15.11665        0.417
        9.08987        5.96697       15.48213        0.417
       23.73618       14.78725       25.55192       -0.834
       23.17837       14.67951       26.32229        0.417
       24.27845       13.99863       25.53609        0.417
       24.23744       13.19490       14.58793       -0.834
       23.96532       13.90862       15.16482        0.417
       23.87167       12.40762       14.99121        0.417
        4.45219       23.77353       13.29802       -0.834
        4.69326       24.68446       13.12973        0.417
        3.50458       23.74762       13.16536        0.417
       26.68351        9.93262       22.50419       -0.834
       26.93624       10.85585       22.50576        0.417
       26.83639        9.64348       21.60461        0.417
       15.15716       22.56982        6.05563       -0.834
       15.28785       23.51643        6.11123        0.417
       16.01641       22.22259        5.81616        0.417
       19.44042       22.53376       26.40237       -0.834
       18.66916       22.80415       26.90065        0.417
       20.07270       23.23969       26.53694        0.417
       27.58967       12.73055       20.23772       -0.834
       26.81749       12.65325       19.67736        0.417
       28.21969       12.11409       19.86451        0.417
       16.51988       23.46809       19.31013       -0.834
       16.05972       23.58182       18.47854        0.417
       16.01442       22.80117       19.77485        0.417
       23.92792        6.86657       22.11359       -0.834
       24.43464        7.57112       22.51740        0.417
       23.89329        7.09748       21.18530        0.417
       12.15236       22.49279       26.25201       -0.834
       12.33644       21.79818       25.61967        0.417
       12.94592       22.54926       26.78428        0.417
       17.66872       25.36961       26.92618       -0.834
       17.36899       24.89555       26.15051        0.417
       17.39750       26.27486       26.77387        0.417
        6.64939       21.97682        8.21288       -0.834
        5.85593       21.85673        8.73465        0.417
        7.36132       21.96535        8.85262        0.417
       23.71840       13.70474        5.13518       -0.834
       23.48407       14.61652        4.96204        0.417
       24.56366       13.75480        5.58157        0.417
       20.25001        6.68168       11.09027       -0.834
       20.65364        6.93959       11.91900        0.417
       20.63051        7.27539       10.44299        0.417
        4.45978       15.34505        6.82127       -0.834
        3.78296       15.82064        7.30290        0.417
        5.26902       15.81861        7.01389        0.417
       19.09892       28.68106       12.74942       -0.834
       18.55831       27.98809       13.12855        0.417
       19.85138       28.74720       13.33735        0.417
       18.29041       25.78808       18.19422       -0.834
       18.02352       26.34244       18.92749        0.417
       18.13584       24.89441       18.50032        0.417
       25.15554       17.02144       24.33118       -0.834
       25.94703       17.21739       24.83255        0.417
       24.75547       16.28439       24.79265        0.417
        9.85710       22.34610       16.45892       -0.834
       10.60815       22.82111       16.10322        0.417
        9.53688       22.90122       17.16993        0.417
       10.78656        7.87251       26.33418       -0.834
       10.35915        8.55785       26.84785        0.417
       11.62680        8.25304       26.07842        0.417
        5.82770       13.81756       14.61941       -0.834
        5.32960       14.20013       15.34175        0.417
        6.21501       13.02397       14.98879        0.417
       22.30308       12.27729        3.21167       -0.834
       22.76167       12.70232        3.93643        0.417
       22.79776       11.47329        3.05321        0.417
       22.78061       17.00062       16.50810       -0.834
       22.30490       16.77699       17.30806        0.417
       22.88460       17.95130       16.54855        0.417
       12.65449       13.78436       12.55553       -0.834
       12.90904       14.20886       11.73624        0.417
       12.43018       12.88894       12.30227        0.417
       27.78694       19.14666       10.36319       -0.834
       28.26748       18.32411       10.26974        0.417
       26.86640       18.89746       10.28108        0.417
       27.06929        7.24797       20.86332       -0.834
       26.40825        6.70660       21.29479        0.417
       27.89627        6.79598       21.03081        0.417
        9.07171       13.28862       19.03817       -0.834
        9.29043       14.03736       19.59295        0.417
        8.66211       12.66060       19.63318        0.417
       18.92811       23.97385       11.97409       -0.834
       18.04610       24.27862       12.18716        0.417
       19.07595       23.23515       12.56460        0.417
        5.21162       19.43015       22.04369       -0.834
        5.96846       19.99166       22.21139        0.417
        4.84075       19.76479       21.22718        0.417
       21.27254        5.77764       15.92153       -0.834
       22.07864        5.60153       16.40673        0.417
       20.64709        5.13350       16.25339        0.417
       25.18007       24.37566       20.54226       -0.834
       24.29632       24.14139       20.25882        0.417
       25.42379       23.68763       21.16149        0.417
       15.56403        2.81262       15.27758       -0.834
       16.08966        2.13076       14.85923        0.417
       15.05769        3.19794       14.56248        0.417
       15.22360       29.72259       11.35732       -0.834
       14.75312       29.74690       10.52408        0.417
       16.14815       29.75825       11.11201        0.417
       20.59834       25.01662       24.13439       -0.834
       19.67114       24.94337       23.90816        0.417
       20.90520       25.77988       23.64500        0.417
       24.15988       22.55404       17.88423       -0.834
       24.99896       22.38596       18.31311        0.417
       23.51935       22.08290       18.41713        0.417
       28.27156       19.98742       15.51538       -0.834
       27.83384       20.80952       15.29449        0.417
       28.18485       19.45024       14.72788        0.417
        3.67717       14.73148       12.17621       -0.834
        4.43505       15.30683       12.07219        0.417
        2.92130       15.30525       12.05103        0.417
       12.56785       28.66259       14.31248       -0.834
       13.47176       28.97550       14.34790        0.417
       12.15326       29.20230       13.63938        0.417
       23.34398       20.41576       20.02938       -0.834
       22.61216       20.40215       20.64622        0.417
       23.88759       19.67069       20.28548        0.417
       27.83428       13.46986       16.89765       -0.834
       27.05266       12.99523       17.18054        0.417
       27.50975       14.11198       16.26631        0.417
       21.11518        9.13757        4.13258       -0.834
       20.40570        9.31615        3.51534        0.417
       20.73390        8.53122        4.76756        0.417
       30.17544       22.00178       16.44763       -0.834
       29.45713       21.62093       15.94243        0.417
       30.93682       21.46694       16.22297        0.417
       18.98551        1.68230       14.62012       -0.834
       19.21103        2.40631       15.20423        0.417
       19.66899        1.69272       13.95005        0.417
        5.55984       21.29342       10.93784       -0.834
        5.45257       20.35738       10.76887        0.417
        4.70146       21.58107       11.24875        0.417
       19.82680       11.79684       26.23421       -0.834
       20.04029       11.43319       25.37490        0.417
       20.12537       11.13355       26.85641        0.417
       23.94343       18.30593        3.98634       -0.834
       24.73453       18.81088        4.17455        0.417
       23.97132       18.15973        3.04079        0.417
       17.62164       24.39329       15.73114       -0.834
       17.47753       24.95253       14.96778        0.417
       17.87993       24.99825       16.42651        0.417
       20.15260        7.22128        5.68967       -0.834
       20.70183        6.48838        5.96793        0.417
       19.25657        6.89545        5.77451        0.417
       25.78386       19.19631       20.82429       -0.834
       26.38818       19.13968       21.56444        0.417
       25.71077       18.29697       20.50480        0.417
       15.43835       28.56869       17.90329       -0.834
       15.80726       28.74884       18.76799        0.417
       15.82525       29.23386       17.33400        0.417
        7.43156       11.00941       23.52264       -0.834
        7.86813       10.15775       23.54004        0.417
        6.50367       10.80127       23.41339        0.417
       24.17642       20.02659        7.77781       -0.834
       23.70890       20.11166        8.60872        0.417
       24.26048       20.92441        7.45673        0.417
       18.25063       14.49379        2.04449       -0.834
       17.53501       13.98036        1.66964        0.417
       18.65330       13.91037        2.68768        0.417
       12.79149       18.06159       23.44236       -0.834
       13.60427       17.83613       22.98984        0.417
       12.14965       17.43416       23.10977        0.417
       19.57967       13.01406        3.83219       -0.834
       20.39586       12.51878        3.90124        0.417
       18.97285       12.55930        4.41631        0.417
       12.23673       11.32214       11.84244       -0.834
       12.20933       10.36890       11.92496        0.417
       11.58190       11.52409       11.17414        0.417
       22.46486        9.01489        6.87236       -0.834
       23.25980        8.56396        7.15690        0.417
       21.99366        8.36480        6.35122        0.417
       17.35413        6.64429        9.73240       -0.834
       17.56781        7.53198        9.44505        0.417
       18.18809        6.28134       10.03073        0.417
       15.62033       21.63243       21.90112       -0.834
       14.70558       21.91432       21.89752        0.417
       15.62295       20.81958       21.39566        0.417
       25.48946        8.19493       24.08069       -0.834
       26.12399        8.73214       23.60635        0.417
       26.02395        7.58547       24.58972        0.417
       12.18480        7.90322       18.50916       -0.834
       11.59656        7.15175       18.58325        0.417
       13.05008        7.55235       18.71987        0.417
       11.04755       12.46775       21.63180       -0.834
       10.09111       12.42989       21.63602        0.417
       11.31393       11.74275       21.06642        0.417
       13.98553       17.49838       25.98948       -0.834
       13.83925       17.54563       25.04471        0.417
       14.73929       16.91648       26.08681        0.417
       21.38278       14.23097       12.38712       -0.834
       21.01159       13.78622       13.14913        0.417
       21.90865       14.94062       12.75602        0.417
       20.38822       11.67081       10.32841       -0.834
       20.42442       12.50497       10.79649        0.417
       21.14787       11.18351       10.64731        0.417
       20.55245       25.75333       27.05970       -0.834
       20.83356       25.47875       26.18688        0.417
       19.59651       25.76350       27.01181        0.417
       16.86830       20.93267       12.62599       -0.834
       16.59389       20.01673       12.58139        0.417
       17.08150       21.16362       11.72187        0.417
       14.64348        6.28930       12.35862       -0.834
       14.14941        6.80021       11.71745        0.417
       15.07273        6.94479       12.90845        0.417
       21.32340       25.01193       11.34179       -0.834
       20.40789       24.83508       11.55813        0.417
       21.78662       24.21036       11.58498        0.417
       19.94649       27.88187        6.85413       -0.834
       20.30642       28.68895        7.22198        0.417
       19.93633       27.26732        7.58793        0.417
       20.52150       23.15067        5.84593       -0.834
       20.36406       23.27383        6.78202        0.417
       20.85423       22.25604        5.77420        0.417
       14.51256       25.41550        6.05608       -0.834
       14.69857       26.31877        6.31248        0.417
       14.70640       25.38723        5.11914        0.417
       18.31488        7.17163       25.38374       -0.834
       18.72495        7.71972       26.05281        0.417
       17.81316        7.78428       24.84601        0.417
       24.12170       26.56991       13.79729       -0.834
       23.32985       26.27692       14.24823        0.417
       24.12707       26.07680       12.97690        0.417
        5.12662       18.63902       11.52857       -0.834
        5.64907       17.83824       11.57361        0.417
        4.44094       18.44262       10.89022        0.417
       29.26246       17.71094       21.38064       -0.834
       28.78636       18.28353       21.98206        0.417
       29.76763       17.13114       21.95061        0.417
        9.50864       12.01749       11.09126       -0.834
        9.29833       12.94611       10.99288        0.417
        9.00613       11.58328       10.40193        0.417
       30.78878       20.73151       21.41512       -0.834
       30.10508       20.41562       20.82436        0.417
       30.65445       21.67848       21.45307        0.417
        6.76721       17.01082       18.92303       -0.834
        5.96517       17.35536       18.53027        0.417
        6.76208       17.35174       19.81745        0.417
       24.92334        7.80938       15.00704       -0.834
       24.73731        8.18058       15.86950        0.417
       25.29035        6.94490       15.19192        0.417
       10.87894        3.35916       15.13673       -0.834
       11.29462        4.05175       14.62315        0.417
       11.19755        2.54590       14.74517        0.417
        5.26884       17.08207       14.66440       -0.834
        5.02829       16.21401       14.98820        0.417
        6.17506       16.98629       14.37143        0.417
       19.69255       22.92083       14.47084       -0.834
       18.93041       23.14021       15.00680        0.417
       20.44323       23.19632       14.99696        0.417
       16.63156       29.36586       20.34461       -0.834
       15.79069       29.48383       20.78647        0.417
       17.18621       30.06337       20.69402        0.417
       19.39715       13.52881       29.76548       -0.834
       19.45418       13.72096       30.70145        0.417
       18.47941       13.68624       29.54365        0.417
       29.11236       11.73957       14.18359       -0.834
       28.42818       12.12695       13.63764        0.417
       29.89028       12.26766       14.00416        0.417
       11.84557       15.55582       22.21720       -0.834
       10.89269       15.46748       22.23778        0.417
       12.17227       14.67525       22.40185        0.417
       22.35908       23.94307       22.57170       -0.834
       21.72488       24.17636       23.24964        0.417
       22.47863       22.99844       22.66974        0.417
        7.61830       18.74770       16.90311       -0.834
        7.71561       17.94316       17.41249        0.417
        8.18552       19.38063       17.34344        0.417
       11.82132        8.04192       21.82456       -0.834
       11.90759        8.94234       21.51146        0.417
       11.34288        7.59078       21.12901        0.417
       12.17468       23.92883       15.48199       -0.834
       12.09801       24.02318       16.43144        0.417
       12.85844       23.27005       15.36071        0.417
       14.15297       24.68791       18.13251       -0.834
       14.02700       25.51917       17.67494        0.417
       13.26600       24.37042       18.30195        0.417
       14.99936       25.58554       20.66023       -0.834
       15.94255       25.73493       20.59453        0.417
       14.81926       24.90138       20.01547        0.417
       20.20731       10.43825       24.13840       -0.834
       20.84931        9.79538       23.83707        0.417
       19.50837       10.40370       23.48532        0.417
       23.80692        9.98851       14.01834       -0.834
       23.98988        9.05263       14.10129        0.417
       24.65593       10.41137       14.14723        0.417
       11.28911       17.72323       12.10049       -0.834
       11.91194       17.94218       11.40740        0.417
       10.54374       18.30340       11.94538        0.417
       17.88306       21.56901       28.95260       -0.834
       17.29595       22.30321       28.77239        0.417
       18.73676       21.97543       29.10179        0.417
       23.35835        8.71244       20.10064       -0.834
       22.85831        8.63222       19.28839        0.417
       23.96650        9.43346       19.93785        0.417
       10.60043       23.54146       24.16741       -0.834
       10.96852       23.00288       24.86789        0.417
       10.09636       22.92807       23.63272        0.417
       16.78033       24.09639       24.87704       -0.834
       16.60705       23.15520       24.85786        0.417
       15.97888       24.49492       24.53779        0.417
       11.57284       14.25662        8.36855       -0.834
       12.04105       14.06445        9.18100        0.417
       12.15626       13.94609        7.67614        0.417
       15.79680        3.82522       12.66058       -0.834
       15.47436        4.71575       12.52195        0.417
       16.66887        3.94171       13.03761        0.417
       15.07581       26.55709       27.35033       -0.834
       14.39381       26.19945       27.91884        0.417
       15.60113       27.11280       27.92605        0.417
       26.75768       11.58577        7.25099       -0.834
       26.84085       10.92160        7.93525        0.417
       27.38291       12.26645        7.49998        0.417
       10.57704       14.58064       28.70324       -0.834
       11.25844       14.23818       28.12476        0.417
       11.05598       15.04620       29.38888        0.417
       28.20008        8.96438       15.15248       -0.834
       29.15065        9.00997       15.25525        0.417
       27.98471        8.04628       15.31661        0.417
       23.06898        4.22573       11.17438       -0.834
       22.75986        4.53749       12.02496        0.417
       22.28297        3.89427       10.74016        0.417
       20.57972       11.77758       20.52728       -0.834
       19.84962       12.23599       20.11129        0.417
       20.70938       12.23623       21.35738        0.417
       11.19796       16.54955       19.12898       -0.834
       11.60760       16.40628       19.98215        0.417
       11.67474       15.97116       18.53368        0.417
        3.99991       15.10722       16.24272       -0.834
        3.60689       15.72129       16.86295        0.417
        3.26847       14.56701       15.94372        0.417
       10.90022       30.18365       20.66548       -0.834
       11.37247       30.88390       21.11587        0.417
       11.16358       29.38449       21.12180        0.417
       28.38387        9.42670       12.07900       -0.834
       27.68398        8.78334       11.96729        0.417
       28.29441        9.72384       12.98450        0.417
       18.12142       26.41293       23.52880       -0.834
       17.60549       27.15078       23.85380        0.417
       17.53033       25.66235       23.58771        0.417
       10.49551       21.21628       29.18518       -0.834
        9.99030       21.96465       29.50288        0.417
       10.16871       21.06523       28.29826        0.417
       16.91609        9.78994       12.00116       -0.834
       16.50491       10.60221       11.70556        0.417
       16.28721        9.41264       12.61629        0.417
       26.15041       11.08002       15.53725       -0.834
       26.74533       11.69932       15.11443        0.417
       26.63588       10.25527       15.55561        0.417
       16.88393       11.18471       28.10003       -0.834
       16.47699       10.37989       27.77925        0.417
       17.53716       11.40458       27.43583        0.417
       15.32891       12.18566       11.83593       -0.834
       14.82228       12.82011       12.34291        0.417
       14.74533       11.92778       11.12237        0.417
       18.17541        6.03380       12.73175       -0.834
       18.24868        6.57325       13.51906        0.417
       18.94087        6.26919       12.20745        0.417
       11.44704       10.08344       15.29614       -0.834
       11.06067       10.32827       16.13698        0.417
       12.38395       10.24568       15.40623        0.417
       25.27650       17.51318       27.86928       -0.834
       25.28728       18.22187       27.22594        0.417