%Nproc=32
%Mem=120Gb
%chk=temp.chk
#p cam-b3lyp/6-31+G(d,p) nosymm charge Freq 

Calculation for S0 with freq for abs spect

0  1
 C         15.67001       17.52951       16.07990
 C         17.29263       15.73382       15.50664
 C         17.69386       15.59301       16.75284
 C         17.02629       16.30618       17.76575
 N         16.02668       17.20797       17.42578
 H         17.67125       15.12497       14.63812
 H         18.45954       14.96849       17.03646
 O         17.17321       16.07324       18.97937
 O         14.84122       18.33227       15.79511
 N         16.36929       16.69331       15.18925
 H         15.95504       16.77448       14.32139
 H         15.50575       17.72944       18.15479
 O         12.34237       18.24348       14.81221
 H         13.24811       18.17381       14.51052
 H         11.86449       18.59035       14.05886
 O         19.62073       14.27555       17.27792
 H         20.12572       14.33508       16.46695
 H         20.15724       13.73250       17.85541
 O         13.91503       19.38093       19.65208
 H         14.01930       19.91955       20.43646
 H         12.99540       19.48700       19.40863
 O         18.34074       13.72578       12.90642
 H         19.08952       13.91615       12.34133
 H         17.97455       14.58471       13.11706
 O         15.56468       15.95130       20.19073
 H         15.09989       15.14562       19.96472
 H         16.48793       15.74452       20.04558
 O         17.72696       21.00192       19.37396
 H         17.39114       21.22478       20.24218
 H         17.45607       20.09403       19.23764
 O         14.10486       21.17368       17.42271
 H         14.14779       22.06135       17.77829
 H         14.10653       20.60608       18.19347
 O         14.93495       20.29510       13.72729
 H         14.51561       19.78028       13.03784
 H         15.85527       20.03387       13.69577
 O         15.31730       12.17666       14.25245
 H         15.77327       12.64591       14.95111
 H         14.77919       12.84400       13.82664
 O         13.98464       14.32078       12.88855
 H         13.37217       14.66798       13.53706
 H         13.60712       14.56925       12.04476
 O         12.44087       15.38177       14.97486
 H         12.01055       16.21308       15.17483
 H         11.79385       14.71507       15.20532
 O         17.01701       16.26988       12.84277
 H         16.11715       15.95094       12.91171
 H         16.93107       17.22192       12.79322
 O         15.89486       13.32457       19.07976
 H         15.56462       12.44280       19.25194
 H         15.82264       13.42683       18.13078
 O         11.57688       18.96925       17.44322
 H         12.07504       19.00170       16.62651
 H         11.23414       18.07628       17.47996
 O         19.94098       18.41210       18.75469
 H         20.50688       17.69469       19.03980
 H         19.71935       18.19737       17.84860
 O         18.27639       14.65919       19.90265
 H         17.65625       13.96397       19.68282
 H         18.85677       14.71202       19.14331
 O         17.79444       19.56728       13.34419
 H         18.37196       20.27429       13.63200
 H         18.14526       19.30187       12.49406
 O         16.62403       18.56802       20.54857
 H         16.18013       18.93263       21.31424
 H         16.03582       17.88124       20.23459
 O         20.10282       16.49496       12.91900
 H         19.91886       17.10803       12.20728
 H         19.66225       16.87212       13.68050
 O         13.05278       14.00117       17.39609
 H         13.32057       13.08437       17.45933
 H         13.26326       14.25115       16.49640
 
        9.44381        6.49725       14.62327       -0.834
        8.76195        7.12241       14.37736        0.417
       10.18558        6.71714       14.05965        0.417
       25.82100       10.78298       13.09022       -0.834
       26.19362        9.94970       12.80207        0.417
       25.54267       11.21369       12.28198        0.417
       23.68399       13.56335       17.98198       -0.834
       23.63525       14.20063       17.26942        0.417
       22.77790       13.28693       18.11912        0.417
       21.30343       16.25290       19.93882       -0.834
       21.60007       15.36326       20.13063        0.417
       21.42526       16.72885       20.76032        0.417
       19.84883       31.50613       20.70520       -0.834
       19.47807       30.63100       20.81888        0.417
       19.29742       31.91563       20.03851        0.417
        9.26925       22.68362       19.86986       -0.834
        9.94396       22.89919       19.22602        0.417
        8.61101       23.37090       19.76694        0.417
       10.76043       23.33668        4.90316       -0.834
       11.22037       22.52832        4.67681        0.417
       10.76161       23.84810        4.09403        0.417
        9.62997       16.17499       14.01733       -0.834
        8.72142       15.88227       13.94610        0.417
        9.56849       17.06812       14.35612        0.417
       23.59162       18.66501       10.06983       -0.834
       23.51482       19.55356        9.72224        0.417
       22.92107       18.16604        9.60334        0.417
       19.09980        8.93574        6.81356       -0.834
       19.78860        8.85487        6.15382        0.417
       18.31063        8.61482        6.37716        0.417
       15.14160       19.66152       22.72585       -0.834
       14.69248       18.87614       23.03844        0.417
       15.03035       20.29852       23.43160        0.417
        7.27909        5.46964       21.59856       -0.834
        8.00187        4.84750       21.68068        0.417
        7.26181        5.69607       20.66869        0.417
       12.67666       31.14408       13.69032       -0.834
       13.45445       31.67976       13.84627        0.417
       12.78004       30.39448       14.27654        0.417
        6.03661       10.07804       24.98180       -0.834
        5.84258        9.43943       25.66792        0.417
        6.97629       10.24068       25.06412        0.417
       14.78357       29.04898       11.85892       -0.834
       14.25356       29.34596       11.11923        0.417
       14.47617       29.57163       12.59957        0.417
       21.26424       21.23554       24.13312       -0.834
       20.80587       21.30206       24.97080        0.417
       21.90144       21.94960       24.15086        0.417
       15.74528        7.52382        9.02366       -0.834
       16.25933        8.33051        9.05888        0.417
       14.92354        7.78096        8.60550        0.417
       16.39903       17.14327       31.31848       -0.834
       16.04704       17.96481       31.66113        0.417
       15.62687       16.64286       31.05468        0.417
       14.27072       15.39337       23.80173       -0.834
       15.08146       15.17193       24.25989        0.417
       14.02835       16.25343       24.14495        0.417
        7.67320       22.50968        8.99353       -0.834
        6.76411       22.31134        9.21814        0.417
        8.15162       21.70612        9.19759        0.417
       20.68627        4.02236       19.84134       -0.834
       21.59650        3.86826       20.09425        0.417
       20.25930        3.17287       19.95216        0.417
       19.83689       13.40670       28.31408       -0.834
       20.44566       14.07481       28.62910        0.417
       20.35818       12.86891       27.71804        0.417
       15.03678        2.61414       17.03084       -0.834
       14.89436        2.60077       16.08439        0.417
       15.72426        1.96484       17.17927        0.417
       12.43988       21.89183        2.83020       -0.834
       11.96351       21.79417        2.00572        0.417
       12.87533       21.04891        2.95707        0.417
       13.74752       17.74991       12.35711       -0.834
       12.97156       17.18968       12.37338        0.417
       14.12893       17.60650       11.49098        0.417
        4.99231       24.92543       11.83840       -0.834
        5.39585       25.76638       11.62346        0.417
        5.21265       24.78177       12.75875        0.417
        7.59072       11.94731       17.44949       -0.834
        6.70367       12.30553       17.48179        0.417
        7.57581       11.33547       16.71351        0.417
       21.50662       21.39754       27.02933       -0.834
       22.14517       21.78813       27.62593        0.417
       21.61853       20.45366       27.14244        0.417
       10.56957       21.17843       14.30420       -0.834
       11.43768       21.38740       14.64911        0.417
       10.28510       21.98140       13.86768        0.417
       17.96385        2.97706       20.93517       -0.834
       18.13812        3.87771       21.20847        0.417
       17.38738        2.62737       21.61460        0.417
       26.46325       24.07060        9.80026       -0.834
       25.74175       24.69629        9.73554        0.417
       26.16049       23.41984       10.43357        0.417
       17.37247        6.78621       11.28547       -0.834
       16.61274        6.69545       10.71031        0.417
       18.01885        7.25452       10.75715        0.417
       18.39313       16.93377        2.91226       -0.834
       17.73865       16.66316        3.55619        0.417
       17.94118       17.57745        2.36668        0.417
       14.35807       27.09757       27.79796       -0.834
       14.99572       26.90579       27.11032        0.417
       14.50064       26.41569       28.45441        0.417
       15.59492       20.54497        2.21309       -0.834
       15.25865       20.89133        1.38654        0.417
       14.82063       20.21108        2.66611        0.417
       17.86090        8.96109       23.59101       -0.834
       18.02082        8.13268       24.04309        0.417
       18.42918        8.92814       22.82147        0.417
       16.43052       27.65693       22.57777       -0.834
       16.00064       27.58640       21.72544        0.417
       16.80922       26.79076       22.72796        0.417
       19.92412       28.14219       22.41217       -0.834
       19.60868       28.65585       21.66861        0.417
       20.24398       27.32821       22.02312        0.417
       29.00416       16.53773       14.46217       -0.834
       28.57256       17.30528       14.08690        0.417
       28.96740       15.87880       13.76885        0.417
       26.13414       18.16726       20.61212       -0.834
       25.67534       17.67249       21.29104        0.417
       27.02640       18.26170       20.94557        0.417
       19.41456       25.42072        7.01955       -0.834
       19.64613       26.34268        7.13182        0.417
       18.93301       25.39320        6.19276        0.417
       15.00317       28.97176        7.96334       -0.834
       14.86244       28.40223        8.71968        0.417
       15.91871       29.24211        8.03354        0.417
       19.70770       22.22563        7.15185       -0.834
       19.46730       22.96816        6.59769        0.417
       20.00970       22.62344        7.96841        0.417
       16.07548        6.16222       22.95163       -0.834
       16.98893        6.05000       22.68848        0.417
       15.58061        6.09614       22.13495        0.417
       21.05304       13.94667       24.60709       -0.834
       20.52665       13.70734       25.36989        0.417
       21.42148       13.11821       24.30027        0.417
        8.25854       20.57735       21.44533       -0.834
        8.12903       19.70151       21.08152        0.417
        8.66584       21.07416       20.73574        0.417
        6.55694       26.10153       17.24463       -0.834
        6.01651       26.79668       16.86921        0.417
        6.98421       26.50987       17.99758        0.417
       13.55331       11.23877        6.79817       -0.834
       14.47601       11.00038        6.88773        0.417
       13.15469       10.49177        6.35171        0.417
        5.90601       11.32838        6.56623       -0.834
        6.70367       11.82103        6.75931        0.417
        5.20228       11.97318        6.63858        0.417
       24.89600       15.73383       21.77511       -0.834
       24.68345       15.57737       22.69520        0.417
       24.17301       15.33531       21.29066        0.417
        6.98344       16.14035       25.69968       -0.834
        7.68173       16.35822       26.31706        0.417
        7.42947       15.69129       24.98159        0.417
       23.92318       14.77555       24.21283       -0.834
       22.97323       14.65802       24.21769        0.417
       24.18021       14.69054       25.13094        0.417
       27.94301       12.74614        8.05431       -0.834
       28.58562       13.26495        8.53816        0.417
       27.56768       12.15751        8.70918        0.417
       19.87048       14.74739       10.16376       -0.834
       19.56820       15.57883        9.79828        0.417
       19.49122       14.08123        9.59051        0.417
       15.26324        9.12910       22.46155       -0.834
       15.70862        8.58115       21.81533        0.417
       15.95171        9.38309       23.07615        0.417
        7.09426       13.03798       13.69033       -0.834
        7.27558       13.44920       14.53546        0.417
        6.18975       13.28192       13.49388        0.417
        9.66960       29.19235       12.20306       -0.834
        9.88169       30.11249       12.35988        0.417
        9.49239       29.14364       11.26366        0.417
       16.94389       22.63508        3.29794       -0.834
       16.50606       21.94798        2.79552        0.417
       16.39749       22.74895        4.07557        0.417
       12.85591       10.38360       23.22814       -0.834
       13.40039       10.81852       23.88435        0.417
       13.48150        9.97946       22.62686        0.417
       17.13241       22.09453       10.45742       -0.834
       17.03125       21.33243        9.88714        0.417
       18.04125       22.36813       10.33339        0.417
       18.88646       16.78857        8.63954       -0.834
       18.82960       16.58183        7.70667        0.417
       18.05750       16.47935        9.00483        0.417
       22.24131        8.64990       16.80664       -0.834
       21.58405        9.34361       16.75175        0.417
       23.07348        9.11430       16.89636        0.417
        4.75902       14.01151       24.01120       -0.834
        4.89526       14.92393       24.26645        0.417
        4.76048       13.52836       24.83751        0.417
       11.51037       24.78150       23.25378       -0.834
       10.64612       24.50254       23.55625        0.417
       11.71730       24.18436       22.53487        0.417
       11.96652       21.96200        7.94993       -0.834
       11.32094       22.08850        8.64523        0.417
       12.27620       22.84458        7.74651        0.417
       23.88071        9.99075        8.29205       -0.834
       23.52334       10.50951        9.01275        0.417
       24.16671        9.17470        8.70253        0.417
        9.58424        4.07574       22.33651       -0.834
       10.10399        4.44620       21.62317        0.417
        9.86312        3.16146       22.38692        0.417
       10.49979        6.61409        8.37334       -0.834
        9.79560        7.07869        8.82555        0.417
       10.05241        6.08209        7.71528        0.417
        8.65366        4.27968       11.84207       -0.834
        8.32086        4.12618       12.72632        0.417
        9.46422        4.77176       11.97277        0.417
       23.36566       10.53771       26.87576       -0.834
       24.03237       10.51293       26.18938        0.417
       23.53651        9.75832       27.40453        0.417
       12.93247        7.73331        7.76183       -0.834
       12.17647        7.28633        8.14249        0.417
       12.92678        8.60101        8.16591        0.417
       21.51928        4.51340       23.82609       -0.834
       22.14508        3.79159       23.76611        0.417
       20.85108        4.30663       23.17264        0.417
       12.32109        9.37799        9.87938       -0.834
       12.66282        9.28875       10.76904        0.417
       12.40761       10.31050        9.68148        0.417
       26.32898        8.76220       15.32479       -0.834
       26.04103        9.15272       14.49968        0.417
       27.07746        8.21643       15.08367        0.417
       28.00377       16.17680       11.10236       -0.834
       27.04884       16.19878       11.04015        0.417
       28.18476       15.53614       11.79014        0.417
        7.55219       20.04085        6.43091       -0.834
        8.41347       20.36746        6.69120        0.417
        7.64241       19.84237        5.49887        0.417
       21.74345       23.50602       22.16906       -0.834
       22.48309       22.90516       22.07888        0.417
       21.04868       23.11230       21.64132        0.417
       12.45737        6.70659       18.65356       -0.834
       12.14330        7.34943       18.01768        0.417
       12.62785        5.92001       18.13542        0.417
       15.64040       13.48539        6.64789       -0.834
       15.21561       14.14204        7.19979        0.417
       15.71824       13.90573        5.79145        0.417
        6.90911       22.08679       27.48736       -0.834
        7.84242       22.11970       27.27739        0.417
        6.58390       21.31998       27.01570        0.417
        8.32028       25.05942       12.78067       -0.834
        7.76768       25.40311       12.07871        0.417
        9.17041       25.47731       12.64326        0.417
       15.95641       30.79756       17.36744       -0.834
       15.63222       31.33006       16.64109        0.417
       16.48498       30.11778       16.94943        0.417
       24.92202       19.68471       12.01651       -0.834
       24.41732       19.33898       11.28031        0.417
       24.45620       19.37508       12.79328        0.417
       27.61811       12.25539       25.01363       -0.834
       27.14110       12.38071       25.83399        0.417
       27.09658       12.72028       24.35933        0.417
        5.81223       10.72081       15.52006       -0.834
        5.33120       11.52713       15.70631        0.417
        5.31472       10.30124       14.81815        0.417
        5.68960       22.04497       20.78351       -0.834
        5.75064       21.53603       19.97512        0.417
        6.59901       22.19823       21.03985        0.417
       28.15445       24.18639       16.22379       -0.834
       28.73793       23.45476       16.42504        0.417
       28.73387       24.94593       16.16370        0.417
        9.66699        8.89498       27.86055       -0.834
        8.78644        9.04510       27.51656        0.417
       10.22487        8.85688       27.08367        0.417
       19.50059       23.07343        9.91959       -0.834
       20.22962       22.56094       10.26902        0.417
       19.73574       23.98258       10.10499        0.417
       14.47871       17.63163        4.83963       -0.834
       14.78133       16.72664        4.76449        0.417
       13.69289       17.57754        5.38350        0.417
       27.03750       19.74696       18.38116       -0.834
       26.64376       19.35590       17.60125        0.417
       26.50558       19.42157       19.10740        0.417
       20.39196       10.20060       13.47521       -0.834
       19.93296       10.94040       13.87301        0.417
       21.32014       10.41071       13.57799        0.417
       14.99721       29.92061       23.74939       -0.834
       15.11789       29.01880       23.45207        0.417
       15.82609       30.35360       23.54514        0.417
       10.77848        9.06253       20.68325       -0.834
       11.01641        8.80113       21.57279        0.417
       11.29891        8.49164       20.11805        0.417
       14.52066       18.55600       27.74843       -0.834
       13.87461       18.44760       28.44636        0.417
       14.97760       19.36783       27.96836        0.417
        6.65797       16.96262        4.33540       -0.834
        6.81627       16.48823        5.15156        0.417
        5.92710       17.54741        4.53560        0.417
       16.69839       26.29755       19.29014       -0.834
       16.89469       27.00512       18.67609        0.417
       16.92146       25.49774       18.81393        0.417
       15.20674       10.50990       11.70985       -0.834
       15.44399       10.78586       12.59517        0.417
       14.87647        9.61789       11.81693        0.417
       21.80751        4.14902       17.30076       -0.834
       21.31517        4.17743       18.12114        0.417
       22.67562        4.48060       17.53026        0.417
       14.57746        6.22891       20.36664       -0.834
       14.08624        6.79983       19.77589        0.417
       14.88861        5.51646       19.80823        0.417
        6.97104       12.18775       21.17434       -0.834
        7.86305       11.93522       20.93602        0.417
        6.89521       11.95599       22.09996        0.417
       18.18010        8.85508       28.53177       -0.834
       19.01609        8.43387       28.33198        0.417
       18.40782        9.76734       28.71109        0.417
       23.70045       20.01586        5.90162       -0.834
       24.61451       20.04176        5.61869        0.417
       23.19678       20.03127        5.08780        0.417
       10.75631       10.88032       17.63211       -0.834
       11.32095       11.39806       18.20601        0.417
        9.88355       10.96233       18.01655        0.417
       21.57554        6.58984        9.08460       -0.834
       21.97419        6.41769        9.93764        0.417
       20.87489        5.94172        9.01195        0.417
       18.69470       25.81684       26.88025       -0.834
       18.91465       26.17794       27.73900        0.417
       18.64246       26.58022       26.30514        0.417
       12.85039       23.68776       27.45608       -0.834
       13.42733       23.56704       28.21027        0.417
       13.25531       24.39575       26.95506        0.417
        6.99482       24.90009       20.81209       -0.834
        7.50660       25.35206       20.14124        0.417
        6.13699       25.32395       20.78565        0.417
        3.80561       15.32386       21.13766       -0.834
        3.51828       15.45825       22.04077        0.417
        3.48572       16.09352       20.66700        0.417
        8.42912       11.22919       12.48571       -0.834
        8.08255       11.91502       13.05646        0.417
        7.67969       10.65934       12.31292        0.417
       24.12136       12.43982       28.91847       -0.834
       23.69104       11.88390       28.26886        0.417
       24.38037       11.83757       29.61592        0.417
       21.34622       12.12616        6.12546       -0.834
       21.41476       13.06533        6.29722        0.417
       20.87166       11.77813        6.88037        0.417
       15.68673       12.11227       25.00729       -0.834
       16.08562       11.24854       25.11260        0.417
       15.47229       12.38785       25.89852        0.417
        9.68085       22.92646       24.10829       -0.834
        8.74883       23.12059       24.00883        0.417
        9.80459       22.09901       23.64327        0.417
       13.58039       24.41027        6.88953       -0.834
       13.75684       23.81837        6.15827        0.417
       14.16140       24.10875        7.58792        0.417
        8.26639       16.62669       10.85412       -0.834
        8.45133       17.31603       10.21628        0.417
        8.50673       17.00964       11.69782        0.417
       26.19116       21.80724        7.12542       -0.834
       26.41240       21.06033        7.68167        0.417
       26.55980       21.58691        6.26997        0.417
       21.17450       14.36815       14.88447       -0.834
       20.96340       14.89282       14.11220        0.417
       22.10295       14.15759       14.78508        0.417
       28.39383       13.70908       18.58323       -0.834
       28.45787       14.06511       17.69702        0.417
       29.07384       13.03650       18.62138        0.417
       19.35531        8.03329        9.37913       -0.834
       20.25022        7.69690        9.42610        0.417
       19.29535        8.43566        8.51268        0.417
       11.29467       15.72282       24.69433       -0.834
       10.77222       16.00181       23.94237        0.417
       11.89216       15.06410       24.34029        0.417
       23.60419       22.10787       20.76431       -0.834
       23.16409       21.31607       20.45511        0.417
       23.76837       22.61675       19.97039        0.417
       19.23552       12.12985       15.13721       -0.834
       18.67363       12.57250       14.50116        0.417
       19.91665       12.77032       15.34238        0.417
       21.95112        7.84948       19.96183       -0.834
       22.03518        8.25028       19.09666        0.417
       22.80546        7.44992       20.12525        0.417
       22.37677       14.02953       20.94316       -0.834
       21.59465       13.85060       21.46519        0.417
       22.56695       13.20059       20.50393        0.417
       24.07484       28.68271       15.23110       -0.834
       24.25564       28.81889       16.16115        0.417
       24.62473       27.93849       14.98618        0.417
       21.21346       20.78934       10.76185       -0.834
       21.81891       20.79515       10.02048        0.417
       21.69553       21.21842       11.46876        0.417
        7.60491       18.72099       12.54434       -0.834
        7.56680       18.94446       13.47431        0.417
        6.86205       19.18303       12.15586        0.417
       24.42313       14.97363        7.62652       -0.834
       24.44077       15.82687        7.19303        0.417
       25.00394       14.42472        7.09965        0.417
        8.57794        9.15601       22.32986       -0.834
        9.27326        9.17439       21.67228        0.417
        8.91692        9.68447       23.05240        0.417
       12.76856       14.93118       21.45346       -0.834
       13.38425       15.25324       22.11182        0.417
       12.44503       15.72124       21.02061        0.417
       21.78680       14.51735        7.12772       -0.834
       21.52961       15.43912        7.14848        0.417
       22.72277       14.52478        7.32807        0.417
       18.59827       11.09407       19.70202       -0.834
       18.97783       11.01242       18.82709        0.417
       19.28797       11.50186       20.22572        0.417
       23.38306        9.04620       11.62243       -0.834
       23.37267        9.42725       12.50046        0.417
       22.69642        9.51579       11.14889        0.417
       26.54598       13.16113       14.14646       -0.834
       26.14165       12.31616       13.94955        0.417
       25.80774       13.74854       14.30826        0.417
       18.11122       20.62454       31.13729       -0.834
       18.22050       20.98413       30.25696        0.417
       17.39892       19.99097       31.05101        0.417
       22.15116       27.75438       24.61913       -0.834
       22.65052       26.98339       24.34996        0.417
       21.39545       27.76791       24.03179        0.417
       25.79627       26.70341       14.47221       -0.834
       25.84952       26.06546       13.76058        0.417
       26.51124       27.31594       14.29941        0.417
        9.23538       24.49002       15.80120       -0.834
        8.77977       25.05648       16.42391        0.417
        8.95329       24.80259       14.94157        0.417
       19.54783        6.39966       19.68116       -0.834
       19.58960        5.45822       19.51330        0.417
       20.45581        6.69554       19.61614        0.417
       17.37224        7.11273        5.49202       -0.834
       16.45990        7.11327        5.78162        0.417
       17.35114        6.69072        4.63313        0.417
       14.48683       15.22757       27.81311       -0.834
       15.22589       14.69502       27.51915        0.417
       14.72961       16.12393       27.58110        0.417
       24.08417       10.73463       16.91527       -0.834
       25.01869       10.54080       16.84221        0.417
       24.04844       11.66709       17.12852        0.417
       21.15036       17.08592        6.24427       -0.834
       21.44256       17.51364        5.43934        0.417
       20.34255       16.63578        5.99721        0.417
       18.74131       18.76113       10.91813       -0.834
       19.49595       19.34115       10.81647        0.417
       18.23145       18.88822       10.11806        0.417
        9.77766       17.44353       22.01764       -0.834
        9.11572       17.52453       21.33097        0.417
       10.60559       17.36127       21.54436        0.417
        8.49194       10.93990       25.14580       -0.834
        9.31724       10.53265       25.40897        0.417
        8.75442       11.71535       24.64981        0.417
       14.23848       22.95838        4.50546       -0.834
       13.69330       22.61995        3.79519        0.417
       14.71934       22.19440        4.82381        0.417
       24.59324        6.88815        8.63135       -0.834