%Nproc=32
%Mem=120Gb
%chk=temp.chk
#p cam-b3lyp/6-31+G(d,p) nosymm charge Freq 

Calculation for S0 with freq for abs spect

0  1
 C         15.67001       17.52951       16.07990
 C         17.29263       15.73382       15.50664
 C         17.69386       15.59301       16.75284
 C         17.02629       16.30618       17.76575
 N         16.02668       17.20797       17.42578
 H         17.67125       15.12497       14.63812
 H         18.45954       14.96849       17.03646
 O         17.17321       16.07324       18.97937
 O         14.84122       18.33227       15.79511
 N         16.36929       16.69331       15.18925
 H         15.95504       16.77448       14.32139
 H         15.50575       17.72944       18.15479
 O         21.28837       14.36562       16.84600
 H         21.43338       13.47007       16.54071
 H         20.33900       14.43387       16.94729
 O         14.37953       16.54124       20.31595
 H         13.95141       17.37316       20.11381
 H         13.97984       15.91321       19.71424
 O         20.97343       17.03900       16.11211
 H         21.24681       16.12706       16.01284
 H         20.47278       17.22723       15.31829
 O         16.91974       14.36298       19.94668
 H         17.07479       14.54025       20.87446
 H         16.96413       15.22235       19.52746
 O         15.54610       12.88169       14.71009
 H         14.64748       12.56390       14.79792
 H         16.08199       12.20234       15.11940
 O         17.59753       17.09872       21.00212
 H         17.55989       17.92666       20.52324
 H         17.02610       17.23264       21.75827
 O         13.73637       19.08102       19.77542
 H         14.43328       19.73716       19.78235
 H         12.97711       19.53349       20.14288
 O         11.90361       18.87282       17.68145
 H         12.66710       18.79971       18.25413
 H         11.73661       19.81353       17.62307
 O         15.93482       20.64756       19.16434
 H         16.55672       20.25985       18.54859
 H         15.76613       21.52296       18.81584
 O         14.88436       20.60135       15.92539
 H         15.79548       20.42763       15.68894
 H         14.77365       21.54095       15.78003
 O         20.32198       20.28415       16.43750
 H         20.71385       20.76922       17.16370
 H         20.58528       19.37590       16.58578
 O         19.89241       17.53305       13.30059
 H         19.19108       16.96769       12.97699
 H         20.68358       16.99910       13.22863
 O         18.36882       15.50201       12.45033
 H         18.21799       14.66476       12.88907
 H         17.57056       15.65529       11.94483
 O         16.15936       18.40008       13.44261
 H         16.39204       17.52228       13.14003
 H         15.20669       18.43845       13.35790
 O         18.88088       20.09777       20.22685
 H         18.51952       20.98117       20.29944
 H         18.44959       19.72448       19.45816
 O         13.05920       14.61288       19.10121
 H         13.16906       13.74909       18.70366
 H         12.17918       14.59380       19.47729
 O         16.29651       12.78564       17.77334
 H         16.45159       13.11207       18.65970
 H         15.39096       13.03019       17.58255
 O         14.00627       15.53579       12.51384
 H         14.91915       15.66156       12.25488
 H         13.66275       16.42281       12.62072
 O         19.30082       12.98054       19.64237
 H         18.67236       13.32855       19.00979
 H         19.36391       13.65807       20.31558
 O         17.97516       13.24319       13.68915
 H         17.05417       12.99256       13.76130
 H         18.20441       13.56797       14.55989
 
       15.28083        9.33549       21.05326       -0.834
       16.14995        9.67800       21.26194        0.417
       15.44583        8.46123       20.70017        0.417
       27.47025       23.17628       23.17565       -0.834
       27.62789       22.23231       23.15779        0.417
       27.94145       23.51274       22.41342        0.417
       21.27880       11.57521       20.96542       -0.834
       20.97961       10.75133       20.58081        0.417
       20.69182       12.23749       20.60063        0.417
       11.42152       11.17995       23.18124       -0.834
       10.79306       10.50956       22.91321        0.417
       11.41991       11.81164       22.46208        0.417
        8.70250       13.24712       19.47785       -0.834
        8.37011       14.10109       19.75441        0.417
        9.25440       13.43851       18.71956        0.417
       10.54239       25.56192       16.40557       -0.834
       10.80693       24.96304       15.70730        0.417
       11.01551       26.37270       16.21842        0.417
       23.58750       18.53807        8.89753       -0.834
       23.71714       18.35102        7.96778        0.417
       22.64442       18.67641        8.98527        0.417
       12.16376       20.34328       14.59232       -0.834
       11.62830       20.83101       15.21813        0.417
       12.85797       19.95304       15.12338        0.417
       20.39160        9.11888       20.17090       -0.834
       20.95273        8.93690       19.41708        0.417
       19.52061        8.83189       19.89657        0.417
       16.34870       11.14786        2.65866       -0.834
       15.95950       11.96804        2.96208        0.417
       16.97832       11.41438        1.98875        0.417
       10.76577       11.87860        8.09206       -0.834
       11.09678       11.42547        8.86751        0.417
       10.49989       12.74035        8.41288        0.417
       12.66444       25.44607       23.77691       -0.834
       12.19354       25.15660       24.55838        0.417
       12.11797       26.14173       23.41134        0.417
       11.26055       12.72064       20.69035       -0.834
       10.70210       13.49315       20.77754        0.417
       10.81919       12.17797       20.03693        0.417
       22.96782        3.70253       20.15727       -0.834
       22.49354        4.52148       20.30082        0.417
       23.68014        3.93870       19.56309        0.417
       11.71863       28.04477       15.76471       -0.834
       11.84044       27.56461       14.94566        0.417
       12.11351       28.90136       15.60174        0.417
        4.48426       25.01444       19.55147       -0.834
        5.28366       24.72910       19.99393        0.417
        4.65613       24.86052       18.62249        0.417
       10.07023       12.24145       11.82822       -0.834
       10.94511       12.50440       12.11403        0.417
        9.84635       12.86432       11.13674        0.417
        6.23135       15.33091       23.60813       -0.834
        6.05894       14.46273       23.97251        0.417
        5.99108       15.93726       24.30872        0.417
       30.69344       14.38006       19.81096       -0.834
       31.11276       13.65334       20.27169        0.417
       30.35956       14.94520       20.50765        0.417
       26.59298       12.70734       25.98913       -0.834
       25.66726       12.46503       26.01265        0.417
       26.96779       12.29919       26.76962        0.417
       10.26138        4.82067       12.49450       -0.834
       10.15358        5.60249       11.95286        0.417
       10.58513        4.15276       11.89009        0.417
       11.29247        4.43069       17.55975       -0.834
       11.45933        4.95512       18.34293        0.417
       10.41779        4.69576       17.27530        0.417
       24.38876       15.87051       14.57787       -0.834
       24.77992       16.70868       14.82421        0.417
       24.56558       15.29517       15.32215        0.417
       18.22061        9.14486        5.27008       -0.834
       17.41880        9.64797        5.41224        0.417
       18.77837        9.36648        6.01575        0.417
       11.08756       14.46250        6.53284       -0.834
       10.23137       14.75480        6.22023        0.417
       11.12647       13.53615        6.29496        0.417
       16.29974       28.25556       18.72938       -0.834
       15.54033       28.52988       18.21531        0.417
       17.05216       28.46204       18.17488        0.417
       17.67134        4.93126       11.39108       -0.834
       16.96446        5.56157       11.52991        0.417
       18.42072        5.46529       11.12750        0.417
       20.27413       25.89724       28.24242       -0.834
       20.37983       24.94879       28.31651        0.417
       19.58262       26.01144       27.59050        0.417
       23.52203        9.23610       19.46742       -0.834
       22.99635        9.31425       20.26353        0.417
       24.28745        8.72702       19.73425        0.417
       24.82365        9.46459       16.98494       -0.834
       24.16988        9.44443       17.68381        0.417
       24.81090       10.36855       16.67041        0.417
       13.57359        5.14514       26.06972       -0.834
       13.40777        6.07050       25.88957        0.417
       13.40159        4.70411       25.23777        0.417
        9.47539       25.04342        8.29780       -0.834
        9.21621       25.88407        7.92047        0.417
       10.18615       24.73661        7.73484        0.417
        6.70188       25.24271        9.22448       -0.834
        6.59512       26.06570        8.74750        0.417
        7.41964       24.79633        8.77525        0.417
       15.41243       27.33233        9.51626       -0.834
       16.33945       27.09426        9.52963        0.417
       15.20826       27.45015        8.58854        0.417
       16.92218        5.82420       18.35802       -0.834
       17.16230        5.22311       19.06319        0.417
       16.04561        6.12987       18.59130        0.417
       18.83670       15.46586       24.43915       -0.834
       18.46497       14.69401       24.86611        0.417
       19.05842       15.16855       23.55672        0.417
        7.66452       18.39555       13.89852       -0.834
        8.37232       18.90132       13.49921        0.417
        6.88538       18.93904       13.78114        0.417
       15.30275       25.78099       22.65035       -0.834
       14.41673       25.81304       23.01115        0.417
       15.31638       26.46994       21.98597        0.417
       29.29351        9.97801       15.54374       -0.834
       28.48710       10.48957       15.60885        0.417
       29.74060       10.12773       16.37676        0.417
       25.21742       26.52362       23.38131       -0.834
       25.63311       26.49859       24.24317        0.417
       25.72017       27.17420       22.89118        0.417
        9.36526       22.72625       13.86651       -0.834
       10.13852       23.26179       14.04398        0.417
        9.68909       22.01129       13.31861        0.417
       19.77305       11.23463       12.46570       -0.834
       20.45337       11.87165       12.24752        0.417
       19.26716       11.65292       13.16236        0.417
       15.96792        4.27463        8.04310       -0.834
       16.60849        4.08402        7.35785        0.417
       15.96288        5.22962        8.10797        0.417
       18.02573        9.79318       26.44306       -0.834
       18.18708        8.84974       26.43225        0.417
       18.63416       10.14815       25.79496        0.417
       26.56866        7.90601       13.18586       -0.834
       26.66714        8.73708       12.72125        0.417
       25.70838        7.58224       12.91881        0.417
       21.68352        7.55159        6.48958       -0.834
       20.99601        7.25519        7.08599        0.417
       22.13582        8.24480        6.97031        0.417
       27.10858       10.22566       18.55013       -0.834
       26.31683        9.77534       18.25590        0.417
       26.79949       10.85090       19.20570        0.417
       19.63241       10.60107       23.74118       -0.834
       19.95087       10.97443       22.91934        0.417
       20.19917        9.84563       23.89711        0.417
        4.51920       23.85275       12.61483       -0.834
        5.34467       23.57060       13.00881        0.417
        4.61304       23.64371       11.68546        0.417
       10.40446       15.34593       21.24645       -0.834
        9.59404       15.53361       21.71999        0.417
       10.51384       16.08959       20.65380        0.417
       15.01313       19.28647       28.74014       -0.834
       14.11360       19.20382       28.42352        0.417
       15.46719       18.52765       28.37373        0.417
       19.29205       15.14006       21.64780       -0.834
       18.77729       15.92828       21.47470        0.417
       20.17997       15.46245       21.80240        0.417
        8.64469       17.12996       23.96522       -0.834
        8.33942       18.03632       24.00460        0.417
        8.00476       16.68513       23.40947        0.417
       28.78315       18.22214       13.78108       -0.834
       29.62931       18.63000       13.59696        0.417
       28.44599       17.97028       12.92136        0.417
       13.32844        8.09760       22.65462       -0.834
       14.05067        8.34861       22.07876        0.417
       13.34404        8.74810       23.35664        0.417
       15.78352       10.30471        5.22671       -0.834
       16.05245       10.57640        4.34916        0.417
       15.67127       11.12452        5.70790        0.417
       13.26063       29.54573       14.05216       -0.834
       12.69041       30.24233       13.72686        0.417
       14.14619       29.84392       13.84457        0.417
        4.99919       17.54717       17.52177       -0.834
        4.09828       17.44865       17.21373        0.417
        4.91203       17.85364       18.42439        0.417
       22.31967       18.35353       24.99647       -0.834
       21.89252       19.17824       24.76490        0.417
       23.09593       18.61596       25.49123        0.417
       15.74823       30.37029       15.38622       -0.834
       16.00254       29.75247       14.70076        0.417
       15.44194       29.81799       16.10551        0.417
       12.41968       15.37722        2.88810       -0.834
       12.58592       14.57741        2.38920        0.417
       11.57054       15.68540        2.57152        0.417
       18.18563       19.08144       25.80828       -0.834
       18.36120       18.76556       24.92193        0.417
       17.88086       19.98063       25.68661        0.417
       24.81741       19.34197        6.42617       -0.834
       25.18674       19.16516        5.56097        0.417
       25.42809       19.96132        6.82579        0.417
       11.53611       17.36767       15.30641       -0.834
       11.62914       17.75685       16.17596        0.417
       11.68408       18.09433       14.70117        0.417
       16.12741       24.93686       19.79395       -0.834
       16.70846       24.71787       20.52241        0.417
       16.44182       25.78581       19.48303        0.417
       21.01227        8.20325       23.06557       -0.834
       20.38497        7.52248       23.30903        0.417
       20.94658        8.26032       22.11233        0.417
       23.39418       15.28681       18.25739       -0.834
       22.65231       14.87921       17.81050        0.417
       23.03160       15.60304       19.08490        0.417
       21.10970       28.87456       12.75209       -0.834
       20.73087       28.79523       13.62755        0.417
       21.32023       29.80426       12.66505        0.417
       19.48168       28.82737       24.67320       -0.834
       19.20496       28.54049       25.54346        0.417
       20.40790       28.59055       24.62569        0.417
        7.30715        6.56914       17.27225       -0.834
        7.87485        7.30812       17.49101        0.417
        7.75436        6.12864       16.54962        0.417
       28.72188       23.84263       20.52685       -0.834
       29.59967       23.48534       20.66126        0.417
       28.51930       23.64395       19.61267        0.417
       19.13734       23.76033       24.54717       -0.834
       20.06583       23.53255       24.49976        0.417
       19.02878       24.14530       25.41679        0.417
       28.53885       13.66946       14.08272       -0.834
       28.15534       14.52025       14.29558        0.417
       28.16844       13.07034       14.73085        0.417
        2.15881       19.50052       15.88621       -0.834
        2.29208       18.72832       15.33650        0.417
        3.00708       19.94399       15.88679        0.417
        6.06126        6.67790       19.74699       -0.834
        5.39663        6.02137       19.95546        0.417
        6.44130        6.38057       18.92031        0.417
       12.17602       29.16559       19.35327       -0.834
       11.36047       28.67699       19.46453        0.417
       11.89653       30.07018       19.21241        0.417
       12.01628       23.84500       14.27525       -0.834
       12.86233       23.40922       14.37789        0.417
       12.20500       24.61077       13.73283        0.417
       15.30223        2.54616       19.33816       -0.834
       15.02863        1.84200       19.92599        0.417
       14.69505        2.49222       18.60015        0.417
       22.60836       25.63356       26.25062       -0.834
       23.44940       25.78378       26.68227        0.417
       21.98834       26.17635       26.73763        0.417
       14.64659       22.20882       25.32485       -0.834
       15.07036       21.35082       25.34717        0.417
       14.22497       22.24597       24.46632        0.417
       18.49030       22.23982        2.87580       -0.834
       18.45028       22.75212        3.68338        0.417
       18.82811       22.85052        2.22069        0.417
       13.47486        2.96680       17.26163       -0.834
       12.74172        3.57282       17.36876        0.417
       14.15265        3.48452       16.82710        0.417
       24.92169       15.40844       24.74947       -0.834
       24.02269       15.12987       24.57503        0.417
       25.00159       15.37822       25.70284        0.417
       19.97228       24.77501        8.05955       -0.834
       20.89295       24.75180        8.32042        0.417
       19.61855       23.93525        8.35265        0.417
       25.46853       21.08270       22.90993       -0.834
       25.40274       20.13741       23.04532        0.417
       25.01261       21.46484       23.65982        0.417
       26.99802       11.70203        9.54481       -0.834
       27.27183       10.82733        9.82076        0.417
       27.24060       12.27104       10.27530        0.417
       24.89511       15.60925        4.88132       -0.834
       24.40992       15.73804        5.69633        0.417
       24.38302       14.96166        4.39694        0.417
       10.17766       12.36419        3.88200       -0.834
       10.50481       11.48595        4.07669        0.417
        9.64522       12.59610        4.64289        0.417
        6.53843       16.59403        7.79090       -0.834
        6.18946       15.70352        7.75294        0.417
        5.94368       17.10833        7.24500        0.417
       19.03367       11.57313       28.89411       -0.834
       19.91990       11.31494       29.14741        0.417
       18.67651       10.80303       28.45184        0.417
       22.85921       10.29422        7.22805       -0.834
       23.81142       10.25137        7.31580        0.417
       22.56126       10.70061        8.04187        0.417
        8.23423       10.70052       18.28874       -0.834
        7.36754       10.48119       18.63077        0.417
        8.36852       11.61354       18.54289        0.417
       17.79546       32.09201       15.61349       -0.834
       17.20246       31.34524       15.53030        0.417
       18.33056       32.06307       14.82036        0.417
       30.14257       11.53565       13.43403       -0.834
       29.82778       11.05843       14.20175        0.417
       29.69522       12.38080       13.47673        0.417
       11.98482        5.38175       20.15267       -0.834
       11.46763        4.70426       20.58827        0.417
       11.56083        6.20351       20.40000        0.417
       25.39224       10.55724        7.71552       -0.834
       25.92430        9.87914        7.29921        0.417
       25.84469       10.74633        8.53757        0.417
       15.79490       28.21483       21.43466       -0.834
       15.92022       28.20548       20.48575        0.417
       16.64489       27.95720       21.79155        0.417
        4.48765       17.13788        9.95240       -0.834
        5.42008       17.00888        9.77873        0.417
        4.04475       16.59239        9.30239        0.417
       25.21614        7.19813       20.42975       -0.834
       25.72267        7.04022       19.63305        0.417
       25.82954        7.02162       21.14306        0.417
        9.58842        9.30911        7.42792       -0.834
        8.70966        9.23527        7.80016        0.417
        9.72173       10.24988        7.31212        0.417
       10.60009       16.31895        8.50134       -0.834
       10.35978       15.76451        7.75900        0.417
       11.49083       16.60952        8.30542        0.417
       28.99590       12.11406       23.51414       -0.834
       29.14395       11.48372       24.21911        0.417
       28.74908       12.92261       23.96308        0.417
        7.63724        6.98426       21.92039       -0.834
        7.67551        6.10448       22.29557        0.417
        7.07618        6.89256       21.15030        0.417
        6.26266       10.13431        9.32289       -0.834
        5.34917       10.41078        9.39593        0.417
        6.21627        9.19048        9.17035        0.417
       19.21839       22.65494        9.42747       -0.834
       19.66425       22.24882       10.17077        0.417
       18.39104       22.17911        9.35471        0.417
       19.96079        9.41079       15.94232       -0.834
       19.75191        8.95664       15.12602        0.417
       19.88401        8.73725       16.61810        0.417
       13.75330       22.85644       22.61570       -0.834
       13.40730       23.67878       22.96252        0.417
       13.79233       22.99276       21.66906        0.417
       25.88252       18.00946       14.88891       -0.834
       25.58153       18.87238       15.17352        0.417
       26.58683       18.19389       14.26749        0.417
       11.18131       21.59340       17.28876       -0.834
       11.52964       22.24696       17.89519        0.417
       10.30966       21.91725       17.06162        0.417
        5.86721        9.32356       19.17849       -0.834
        5.78736        8.40147       19.42264        0.417
        5.19384        9.45422       18.51086        0.417
       21.28669       13.76991       25.79693       -0.834
       21.61224       13.57366       24.91844        0.417
       20.46603       13.28172       25.86335        0.417
       21.41222       19.02624       20.32746       -0.834
       20.54448       19.40576       20.46610        0.417
       22.02074       19.72962       20.55369        0.417
       12.90953        6.61227       15.76877       -0.834
       12.51953        5.82347       15.39203        0.417
       13.78361        6.65647       15.38113        0.417
        3.90101       10.82782       23.14943       -0.834
        4.57354       11.28510       23.65423        0.417
        4.24882       10.79783       22.25816        0.417
       27.77418       15.86123        8.45689       -0.834
       28.05510       15.15864        7.87065        0.417
       27.00106       15.51027        8.89887        0.417
       18.41381       19.68356        4.19265       -0.834
       18.22679       18.87998        3.70734        0.417
       18.35576       20.37875        3.53724        0.417
       16.69420       21.51806       22.20101       -0.834
       16.12916       22.29042       22.18051        0.417
       16.38640       20.97618       21.47446        0.417
       11.37136       17.92721       29.12507       -0.834
       10.84341       17.44458       28.48902        0.417
       11.98235       18.43653       28.59261        0.417
       17.31604       31.57845       20.17548       -0.834
       17.55724       32.21297       20.85034        0.417
       17.95585       30.87278       20.26991        0.417
       11.43171       16.91947       25.08855       -0.834
       11.68110       16.09588       24.66936        0.417
       10.49437       17.00353       24.91375        0.417
       12.79515       15.32986       28.30885       -0.834
       13.72428       15.16824       28.47261        0.417
       12.42227       15.48662       29.17639        0.417
       19.50463       19.42999        6.86264       -0.834
       18.96412       19.97686        6.29255        0.417
       19.97062       18.84636        6.26392        0.417
       20.61576       26.36658       22.19775       -0.834
       21.27747       26.69449       22.80672        0.417
       21.11743       26.04429       21.44895        0.417
        6.31697       19.52264       26.84729       -0.834
        5.40914       19.63533       26.56553        0.417
        6.81794       19.48298       26.03262        0.417
       23.90289        7.26686       12.50832       -0.834
       23.26969        7.98468       12.50549        0.417
       23.41911        6.52149       12.86414        0.417
       15.62337       25.25662       25.32341       -0.834
       15.78069       25.57150       24.43329        0.417
       15.45764       24.31949       25.22069        0.417
       18.49771        7.04339       26.16697       -0.834
       18.01478        6.48177       25.56068        0.417
       18.80582        6.44898       26.85105        0.417
        5.90877       12.72099       24.28534       -0.834
        6.52658       12.09824       23.90228        0.417
        5.97002       12.57039       25.22863        0.417
       20.28711        2.87526       15.26736       -0.834
       20.66913        2.95091       16.14175        0.417
       19.94374        1.98247       15.23190        0.417
       24.34923        5.98490       23.31114       -0.834
       23.56541        5.49043       23.07167        0.417
       24.07129        6.90060       23.28939        0.417
       10.69086       16.96239       11.58360       -0.834
       10.93078       16.97340       10.65702        0.417
        9.75372       17.15717       11.59118        0.417
       22.98899       17.48635        5.98483       -0.834
       23.46040       16.82060        6.48561        0.417
       23.56230       18.25261        6.00513        0.417
       18.60938       12.95717       25.49341       -0.834
       18.70833       12.29779       24.80664        0.417
       17.75735       12.76821       25.88656        0.417
       29.32419       13.50785       17.61103       -0.834
       29.76311       13.89921       18.36629        0.417
       29.64639       14.00739       16.86077        0.417
       24.88356       20.68585       18.60187       -0.834
       24.36386       20.86790       19.38482        0.417
       24.67168       19.77950       18.37857        0.417
       21.09112       22.29826        4.71611       -0.834
       21.27946       22.10296        5.63405        0.417
       20.19988       22.64737        4.72300        0.417
        9.51908        8.78590       22.29458       -0.834
        8.94183        8.03825       22.13957        0.417
       10.06302        8.51950       23.03580        0.417
       25.57826       14.69324        9.66426       -0.834
       25.59142       13.73896        9.73781        0.417
       25.66133       15.00457       10.56560        0.417
       17.05355       22.30502        6.85599       -0.834
       16.76125       21.43099        6.59741        0.417
       16.94538       22.32270        7.80689        0.417
       27.17190       18.87939       21.19021       -0.834
       27.63669       18.56062       21.96389        0.417
       27.33829       19.82198       21.18170        0.417
       27.59255       12.00993       16.15354       -0.834
       27.84102       12.44240       16.97053        0.417
       26.75804       11.58479       16.35122        0.417
       26.94059       22.47875        9.86809       -0.834
       27.20971       23.12534       10.52056        0.417
       25.99442       22.39675        9.98753        0.417
        6.63353       15.24504       16.72293       -0.834
        6.03675       15.79219       17.23354        0.417
        7.43912       15.75866       16.66421        0.417
       17.20177       20.78089       12.00388       -0.834
       17.74688       20.57071       12.76211        0.417
       17.52375       20.20556       11.30995        0.417
        3.03435       15.19999       17.11357       -0.834
        2.22969       14.78103       17.41890        0.417
        3.35751       14.62318       16.42141        0.417
       25.91701       15.70923       12.31553       -0.834
       25.40707       15.51439       13.10180        0.417
       25.44578       16.42916       11.89615        0.417
       25.59075       18.36077       23.62979       -0.834
       24.91490       17.69853       23.48524        0.417
       25.72359       18.36516       24.57772        0.417
       23.74885       15.41706        7.80411       -0.834
       23.98861       15.34314        8.72784        0.417
       23.88666       14.53876        7.44938        0.417
        8.23157       22.83296       18.80991       -0.834