%Nproc=32
%Mem=120Gb
%chk=temp.chk
#p cam-b3lyp/6-31+G(d,p) nosymm charge Freq 

Calculation for S0 with freq for abs spect

0  1
 C         15.67001       17.52951       16.07990
 C         17.29263       15.73382       15.50664
 C         17.69386       15.59301       16.75284
 C         17.02629       16.30618       17.76575
 N         16.02668       17.20797       17.42578
 H         17.67125       15.12497       14.63812
 H         18.45954       14.96849       17.03646
 O         17.17321       16.07324       18.97937
 O         14.84122       18.33227       15.79511
 N         16.36929       16.69331       15.18925
 H         15.95504       16.77448       14.32139
 H         15.50575       17.72944       18.15479
 O         15.00911       18.49612       13.38290
 H         15.11493       17.75506       12.78636
 H         15.89658       18.68985       13.68473
 O         20.52011       16.83615       17.64473
 H         20.34794       15.96120       17.99265
 H         21.34249       17.10078       18.05691
 O         18.58392       21.06652       15.64022
 H         19.21146       21.78556       15.71367
 H         18.40869       20.80756       16.54491
 O         11.97532       15.13549       14.33412
 H         11.84758       14.18705       14.35360
 H         11.93232       15.40234       15.25237
 O         15.12089       15.76206       12.36021
 H         15.73043       15.71915       13.09699
 H         14.32394       15.34163       12.68326
 O         18.83366       15.77403       21.52710
 H         18.13685       15.63823       20.88504
 H         19.63353       15.50941       21.07278
 O         12.12051       15.69214       17.02562
 H         11.32656       15.62418       17.55596
 H         12.48078       16.55215       17.24203
 O         20.88738       17.55979       14.69981
 H         21.11368       17.31036       15.59580
 H         21.54153       18.21653       14.46103
 O         14.11970       19.48413       20.71892
 H         14.14425       19.25250       21.64734
 H         14.97172       19.20908       20.38034
 O         12.39950       19.12715       18.00692
 H         13.32101       19.01684       17.77265
 H         12.32371       18.73194       18.87542
 O         18.37830       20.12079       18.26918
 H         18.98121       19.69573       18.87914
 H         17.77490       20.60909       18.82927
 O         16.66380       18.89525       20.47387
 H         16.31300       18.62622       19.62487
 H         17.51423       18.45967       20.53108
 O         14.85970       13.69988       19.18208
 H         14.57481       13.44776       20.06043
 H         14.87567       12.87895       18.69009
 O         17.79920       18.13802       12.90544
 H         18.45739       17.46532       13.08004
 H         18.14995       18.63000       12.16304
 O         15.97429       20.94038       14.91266
 H         16.87587       21.07078       15.20656
 H         15.46484       21.58022       15.40995
 O         17.15093       14.97110       19.40204
 H         16.27197       14.59242       19.38557
 H         17.68918       14.34970       18.91176
 O         16.05630       11.89554       14.50367
 H         15.75541       12.72521       14.87428
 H         16.54449       11.47858       15.21364
 O         19.52151       18.38207       20.16226
 H         20.23356       18.09034       20.73156
 H         19.67556       17.92840       19.33360
 O         12.31835       17.75662       14.50948
 H         13.19531       17.98368       14.20026
 H         12.23116       16.82258       14.31921
 
       12.80262       24.24973       23.25808       -0.834
       13.60129       23.99239       22.79751        0.417
       13.03411       24.20085       24.18558        0.417
       14.27536       22.83464       25.20979       -0.834
       14.83569       22.08663       25.41652        0.417
       14.72586       23.58587       25.59571        0.417
       20.29241       12.99921       24.74861       -0.834
       20.31265       13.85652       25.17386        0.417
       19.45933       12.61527       25.02210        0.417
       20.96773       21.12977        6.20309       -0.834
       21.48886       20.45174        6.63314        0.417
       21.60777       21.65778        5.72582        0.417
       16.57921       21.73420       26.07351       -0.834
       17.39574       22.20477       26.24103        0.417
       16.65044       21.44644       25.16337        0.417
       21.06699       30.04199       17.62250       -0.834
       20.53811       29.39311       17.15831        0.417
       21.71794       30.32488       16.98026        0.417
       12.83879        6.25820       26.11815       -0.834
       13.16324        5.35934       26.06326        0.417
       13.47670        6.71031       26.67033        0.417
       16.51941       10.45507       24.33856       -0.834
       16.29579        9.65187       24.80877        0.417
       17.04607       10.15965       23.59587        0.417
       24.22184       24.21456       26.28554       -0.834
       23.37774       24.58009       26.02073        0.417
       24.52640       24.79487       26.98319        0.417
       22.69898        9.04108       25.73141       -0.834
       22.57184        9.98686       25.80598        0.417
       22.36847        8.82247       24.86008        0.417
       18.20402        8.98260       22.73208       -0.834
       18.70870        9.63247       22.24300        0.417
       18.68589        8.87172       23.55167        0.417
       15.75762        3.89218       18.60100       -0.834
       14.96457        4.39159       18.79564        0.417
       16.46882        4.42012       18.96391        0.417
        9.42844       14.43404       13.29234       -0.834
        9.08819       14.59781       14.17191        0.417
       10.37879       14.40810       13.40364        0.417
       22.48991       19.69574       14.08521       -0.834
       23.07095       19.98313       14.78951        0.417
       23.00012       19.82446       13.28562        0.417
       23.95753        7.37314       17.25248       -0.834
       24.01875        8.32252       17.35818        0.417
       24.15007        7.02197       18.12187        0.417
        7.45955       20.12751       19.15336       -0.834
        6.93605       19.41489       18.78683        0.417
        6.91143       20.49624       19.84606        0.417
       14.42221        6.88641       17.93993       -0.834
       13.72637        6.28261       17.68017        0.417
       14.99976        6.92914       17.17780        0.417
       22.55813       13.27641       10.05800       -0.834
       23.26637       13.82982        9.72879        0.417
       22.34758       12.69576        9.32674        0.417
       19.03831        4.73135       24.38509       -0.834
       18.82056        4.00161       24.96501        0.417
       18.23819        4.88581       23.88291        0.417
       10.35388       18.22443        8.22959       -0.834
        9.95752       18.35580        7.36827        0.417
        9.69238       18.53460        8.84801        0.417
       19.09351       21.22574       21.47026       -0.834
       18.92862       20.32069       21.20580        0.417
       18.23234       21.56525       21.71389        0.417
       17.44657       16.36144       10.00362       -0.834
       16.86313       16.31321        9.24631        0.417
       17.38985       17.27220       10.29264        0.417
       19.10439       12.69278       18.52378       -0.834
       20.05800       12.67329       18.44329        0.417
       18.93654       12.47763       19.44126        0.417
       12.19805       31.13731       19.57314       -0.834
       11.55771       30.44569       19.74011        0.417
       12.77763       31.11668       20.33465        0.417
       15.20027       24.07953        4.71314       -0.834
       15.63132       24.58564        5.40182        0.417
       14.33490       23.87812        5.06923        0.417
       10.36288       27.72433       14.62902       -0.834
        9.48246       28.09760       14.67092        0.417
       10.27237       26.85229       15.01317        0.417
        7.58186       20.16683       15.31049       -0.834
        8.20368       19.44589       15.40958        0.417
        6.72712       19.74008       15.25106        0.417
       16.86845       26.78015       22.48105       -0.834
       16.56819       26.52569       23.35359        0.417
       17.75033       27.12473       22.62174        0.417
       15.60916        7.74639       24.92665       -0.834
       14.86389        7.77467       25.52665        0.417
       15.87243        6.82620       24.91417        0.417
       24.53458       16.88040       22.57560       -0.834
       25.34938       17.33553       22.78816        0.417
       24.07366       16.81042       23.41160        0.417
       12.60104        5.42492        7.43880       -0.834
       11.99876        6.16747        7.48473        0.417
       13.41288        5.74995        7.82803        0.417
       14.37605       28.87287       12.56538       -0.834
       14.69224       28.78917       13.46497        0.417
       14.29293       27.97110       12.25534        0.417
       12.01497        3.23826       11.21419       -0.834
       12.82725        3.58092       11.58703        0.417
       11.32877        3.55590       11.80110        0.417
       17.87787       28.48831       10.50293       -0.834
       17.54401       28.16608        9.66572        0.417
       17.81103       29.44092       10.43733        0.417
       11.45271        3.87060       19.43826       -0.834
       11.58122        2.94752       19.65653        0.417
       10.67297        4.12731       19.93055        0.417
       16.72309       30.29774       21.80094       -0.834
       17.09395       29.42361       21.92173        0.417
       16.49507       30.58592       22.68479        0.417
       20.25714       15.41386       25.94710       -0.834
       19.63120       15.84013       25.36167        0.417
       19.92332       15.59222       26.82629        0.417
       23.44823        5.75889        9.88495       -0.834
       22.96330        5.49839       10.66802        0.417
       23.98194        6.50099       10.16899        0.417
       24.61789        8.32062       10.70968       -0.834
       25.00398        8.83906       10.00371        0.417
       24.51437        8.93923       11.43274        0.417
       13.04035       26.50935       10.12764       -0.834
       13.11000       25.56550       10.27092        0.417
       12.17870       26.74169       10.47378        0.417
       28.62588       17.44572       23.41330       -0.834
       28.75775       16.53828       23.13871        0.417
       28.20508       17.86486       22.66265        0.417
       24.41375       26.68716        9.35287       -0.834
       25.22898       26.92839        9.79269        0.417
       24.67377       26.02631        8.71107        0.417
       17.26759       18.41779       25.26325       -0.834
       16.72185       18.99440       24.72854        0.417
       18.14121       18.80664       25.22054        0.417
       14.67340       27.87119        5.97600       -0.834
       14.65178       28.45011        6.73798        0.417
       15.36447       27.23925        6.17426        0.417
       19.33898        7.75516       16.86288       -0.834
       18.48514        7.95756       17.24529        0.417
       19.15809        7.06721       16.22239        0.417
       23.59077       18.69226        9.47534       -0.834
       23.44205       19.38351        8.83014        0.417
       24.51088       18.45336        9.36333        0.417
       20.50923        9.60068       20.88079       -0.834
       20.95344       10.27181       20.36262        0.417
       20.43827        8.85006       20.29107        0.417
       16.17434       20.39731       23.61509       -0.834
       16.04766       21.02291       22.90177        0.417
       15.47632       19.75321       23.49620        0.417
        7.02642        6.55937       21.14479       -0.834
        7.25721        7.29724       20.58041        0.417
        7.84428        6.32960       21.58585        0.417
       10.76222       13.80443        8.11495       -0.834
       10.38110       13.87006        8.99054        0.417
       10.07506       14.12294        7.52963        0.417
        3.12271       22.26492       15.42925       -0.834
        3.12508       22.45751       16.36687        0.417
        3.31057       23.10524       15.01117        0.417
       13.72275       28.18978       23.40424       -0.834
       12.86048       28.42906       23.74403        0.417
       14.09622       27.62034       24.07691        0.417
        9.34259       18.16857        5.67567       -0.834
       10.07457       18.14543        5.05930        0.417
        8.67299       17.61496        5.27395        0.417
        5.53994       23.17704       21.73997       -0.834
        5.22864       23.77817       22.41671        0.417
        6.32509       22.77866       22.11556        0.417
       11.98983       22.99827       18.66693       -0.834
       11.14079       22.91745       18.23239        0.417
       12.09163       23.93733       18.82200        0.417
       10.84588       10.08174        4.04142       -0.834
       11.12295       10.89282        4.46759        0.417
       11.61274        9.51096        4.09014        0.417
       22.80958        9.58016        6.06045       -0.834
       22.04356        9.48394        6.62630        0.417
       22.74878       10.47429        5.72421        0.417
       14.68600       28.20024       15.31635       -0.834
       14.80868       27.26484       15.15451        0.417
       14.87898       28.31003       16.24745        0.417
       16.94164       14.22969       25.99525       -0.834
       16.27309       14.81664       26.34847        0.417
       17.43246       14.77000       25.37606        0.417
       28.54641       16.07808        9.84963       -0.834
       28.94674       15.93603       10.70741        0.417
       27.62664       16.26109       10.04139        0.417
       16.10000       22.03374       18.55453       -0.834
       15.72354       22.68709       19.14414        0.417
       15.56951       22.09347       17.76003        0.417
       28.91025       11.82791       10.92857       -0.834
       29.73862       12.30701       10.95093        0.417
       29.11433       11.01736       10.46212        0.417
       21.14432       24.48735       11.30110       -0.834
       20.53683       23.74848       11.33672        0.417
       20.75754       25.08542       10.66162        0.417
       13.44295       16.28812       23.42450       -0.834
       12.74182       16.93147       23.32083        0.417
       13.02830       15.55153       23.87362        0.417
       31.07121       14.32303       22.03654       -0.834
       31.38049       14.42588       22.93654        0.417
       30.12156       14.42739       22.09571        0.417
       15.22736       20.27726       10.06128       -0.834
       14.84367       20.76447       10.79042        0.417
       15.60591       19.49715       10.46670        0.417
        6.31422       12.74178       15.92744       -0.834
        5.82825       12.08717       15.42588        0.417
        5.79313       12.87255       16.71965        0.417
       24.18280       13.36421       24.97355       -0.834
       24.86184       13.44471       25.64336        0.417
       23.53463       12.77441       25.35858        0.417
       18.59624       27.34168       25.42358       -0.834
       19.53181       27.54076       25.38734        0.417
       18.21465       28.07019       25.91336        0.417
        6.52667       22.54787       16.33131       -0.834
        6.31317       22.48566       17.26232        0.417
        6.93345       21.70714       16.12169        0.417
        9.71356       17.07998       26.10933       -0.834
        9.49973       17.57755       26.89859        0.417
        9.33798       16.21307       26.26305        0.417
       22.27831       26.20733       20.10005       -0.834
       21.39030       25.89465       20.27297        0.417
       22.27590       26.43464       19.17023        0.417
       10.92906       14.74242       20.87726       -0.834
       11.34667       13.90058       20.69522        0.417
       10.59985       14.65847       21.77214        0.417
        5.31738       21.49013       24.53444       -0.834
        5.37073       22.37653       24.17711        0.417
        6.22808       21.20305       24.60113        0.417
        9.92792       21.57790        8.92329       -0.834
        9.98146       22.49063        9.20665        0.417
       10.82111       21.35531        8.66081        0.417
       16.31010       30.66322       12.50764       -0.834
       15.67169       29.97758       12.31128        0.417
       16.41249       31.13898       11.68338        0.417
       11.69154       11.83671       29.34083       -0.834
       11.01639       11.42324       29.87883        0.417
       11.36662       11.75602       28.44408        0.417
        9.47135        5.77745       22.64491       -0.834
        9.80811        6.58819       22.26343        0.417
        9.63486        5.86791       23.58369        0.417
       17.33438       21.35913        6.89004       -0.834
       16.67053       21.36977        6.20054        0.417
       18.13674       21.08406        6.44644        0.417
       15.33038       25.55003       17.50508       -0.834
       15.71042       25.57502       16.62691        0.417
       15.80375       26.22552       17.99074        0.417
       10.47986       11.39875       26.75221       -0.834
        9.64306       10.93629       26.70611        0.417
       11.06792       10.88675       26.19698        0.417
       27.69693        8.85712       11.62435       -0.834
       27.18787        9.02567       12.41724        0.417
       27.34772        9.47244       10.97963        0.417
       18.37845       22.65607       11.98560       -0.834
       18.54681       21.85256       12.47780        0.417
       18.11422       22.35421       11.11652        0.417
       24.84892       28.10044       20.71430       -0.834
       25.37801       27.49781       21.23693        0.417
       24.06642       27.59795       20.48754        0.417
       15.94613       11.36605        8.71820       -0.834
       15.09295       11.77193        8.87179        0.417
       16.28093       11.17252        9.59381        0.417
       10.36781        7.08538       25.31330       -0.834
       11.19190        6.64054       25.51137        0.417
        9.70632        6.59253       25.79884        0.417
       13.50497       10.71026       10.91738       -0.834
       13.04732       11.51939       10.68914        0.417
       13.80002       10.84719       11.81762        0.417
       23.11129       29.61849       13.33924       -0.834
       22.70990       30.23476       12.72660        0.417
       24.05313       29.73536       13.21470        0.417
       27.34684       10.33357       16.06385       -0.834
       27.37852       10.15260       17.00325        0.417
       28.22010       10.10453       15.74574        0.417
       12.69586       11.74183       18.25911       -0.834
       12.11763       11.80149       19.01958        0.417
       12.30026       12.32416       17.61056        0.417
        6.73502       11.68203       19.66330       -0.834
        6.67632       12.56096       19.28878        0.417
        6.13472       11.15561       19.13531        0.417
       20.99122       18.16875       10.29320       -0.834
       21.85562       17.77391       10.17854        0.417
       21.13863       19.10726       10.17616        0.417
       26.73782       12.71496       12.72559       -0.834
       27.47792       12.84008       13.31959        0.417
       27.13202       12.38980       11.91620        0.417
       14.23351       14.85424       30.11890       -0.834
       14.19206       13.91268       30.28618        0.417
       13.36313       15.07798       29.78935        0.417
        6.09263       14.54283       13.92390       -0.834
        6.56990       14.16827       14.66427        0.417
        6.48216       14.12949       13.15341        0.417
       14.18639       15.62365        9.87737       -0.834
       13.50143       16.19827       10.21925        0.417
       14.75017       15.44774       10.63065        0.417
        8.73191       25.86657       10.87317       -0.834
        8.58290       26.42028       10.10673        0.417
        9.39624       26.33286       11.38059        0.417
       25.20098       15.23924       15.18393       -0.834
       24.65727       15.66126       15.84915        0.417
       25.52460       14.44420       15.60750        0.417
       14.00035       22.38042       16.36710       -0.834
       13.41704       21.86046       15.81427        0.417
       13.48917       22.55564       17.15718        0.417
       14.57046       21.95247       28.35896       -0.834
       15.50128       22.14801       28.25140        0.417
       14.50552       21.00823       28.21605        0.417
        5.55415       21.67097        7.57174       -0.834
        5.52156       20.71992        7.46848        0.417
        6.28100       21.94816        7.01399        0.417
        7.85989        4.87458       11.40263       -0.834
        7.20045        4.68526       10.73516        0.417
        7.65660        5.76286       11.69568        0.417
       29.74938       15.05538       11.97318       -0.834
       29.43618       14.42711       12.62388        0.417
       30.10407       15.77907       12.48961        0.417
       16.99372       17.69797        5.66202       -0.834
       16.41025       18.36318        6.02710        0.417
       17.84389       18.13319        5.59851        0.417
       16.97485        8.50946        7.52738       -0.834
       17.61882        8.13843        8.13060        0.417
       16.66442        9.30193        7.96540        0.417
       19.82998       16.04031        8.49034       -0.834
       20.42435       15.84146        9.21382        0.417
       18.96812       16.11195        8.90058        0.417
       21.85888       25.29476       25.47769       -0.834
       20.92469       25.11825       25.36647        0.417
       21.96652       26.20346       25.19678        0.417
       15.17034       14.28813       22.08013       -0.834
       15.98336       14.53495       21.63932        0.417
       14.85696       15.10035       22.47803        0.417
       19.88609       27.49596       22.59161       -0.834
       20.44844       26.97825       23.16778        0.417
       20.32491       28.34418       22.52678        0.417
       10.98240       21.54459        5.93520       -0.834
       10.45161       20.82356        5.59666        0.417
       11.81932       21.13995        6.16338        0.417
       18.35134       21.32827       29.13917       -0.834
       18.01195       21.99163       29.74001        0.417
       18.60239       21.81914       28.35671        0.417
       24.41274       10.24377       17.14669       -0.834
       24.94662       10.70935       17.79046        0.417
       24.75520       10.52899       16.29958        0.417
       14.63188       24.96744       26.66837       -0.834
       13.88890       24.49532       27.04430        0.417
       15.21735       25.12280       27.40953        0.417
       20.91498       16.06618        2.96431       -0.834
       20.14114       15.52141        2.82070        0.417
       21.02167       16.08559        3.91534        0.417
       27.75698        9.10831       18.80378       -0.834
       26.83252        8.91901       18.96431        0.417
       28.20136        8.27260       18.94643        0.417
       26.88920       18.88592       21.50885       -0.834
       27.53028       19.17519       20.85956        0.417
       26.22815       18.41593       21.00056        0.417
       13.64411        5.09573       20.42148       -0.834
       12.86446        4.57973       20.21622        0.417
       13.42554        5.98368       20.13861        0.417
        8.85131       19.57300       10.43136       -0.834
        7.94242       19.85268       10.54059        0.417
        9.27707       20.30776        9.98968        0.417
       24.84478       14.51862        8.43429       -0.834
       25.39893       13.79221        8.14885        0.417
       24.42097       14.82638        7.63311        0.417
       17.44224       27.16481       18.31614       -0.834
       18.17898       26.78367       17.83845        0.417
       17.84866       27.67648       19.01560        0.417
       21.82463       12.18834        5.69031       -0.834
       21.38154       12.51646        6.47276        0.417
       21.15165       12.20235        5.00976        0.417
       25.82044        6.66780       13.25340       -0.834
       26.00489        7.52878       13.62881        0.417
       25.32690        6.85491       12.45488        0.417
       25.77162       13.53082       22.86316       -0.834
       25.15538       13.73120       23.56766        0.417
       26.27225       12.78239       23.18788        0.417
        4.70591       15.20297       20.76586       -0.834
        4.96237       14.70817       21.54408        0.417
        5.39939       15.02669       20.13007        0.417
        9.15097       14.21621       26.71923       -0.834
        9.80955       13.53486       26.85441        0.417
        8.59618       13.87769       26.01650        0.417
       15.71329       20.03020        2.47380       -0.834
       15.72068       19.07336        2.49895        0.417
       15.52499       20.24481        1.56017        0.417
       11.89744        9.06716       19.47285       -0.834
       11.79793        8.91957       18.53234        0.417
       12.74855        9.49647       19.55967        0.417
       13.40713       20.09823        6.01137       -0.834
       13.73438       19.61900        6.77260        0.417
       14.19495       20.42307        5.57542        0.417
        7.37021       25.87714       20.57162       -0.834
        7.59846       26.76713       20.84002        0.417
        6.51926       25.71452       20.97864        0.417
       11.12676       18.29497       23.20509       -0.834
       10.49762       18.74553       22.64171        0.417
       10.84420       18.50388       24.09546        0.417
       11.51796       26.01219       21.52794       -0.834
       10.82932       25.56059       21.04002        0.417
       11.88067       25.34198       22.10715        0.417
       10.00379        3.66031       12.75835       -0.834
        9.30984        4.31040       12.64861        0.417
        9.58544        2.82511       12.54938        0.417
       27.08870       14.09460       26.33816       -0.834
       26.98079       13.57411       27.13419        0.417
       26.98738       15.00105       26.62853        0.417
        4.27401       19.79436       13.94934       -0.834
        3.64358       19.45516       14.58474        0.417
        3.96922       20.68156       13.75902        0.417
        6.80336       16.23397       23.65306       -0.834
        6.22120       15.48317       23.53640        0.417
        6.71856       16.46183       24.57887        0.417
       28.66011       17.65404       26.19933       -0.834
       27.87046       17.27162       26.58201        0.417
       28.62504       17.40338       25.27620        0.417
       22.76297       17.85253       20.30693       -0.834
       22.23379       17.05818       20.23473        0.417
       23.11945       17.82353       21.19480        0.417
       24.45749       21.20428       19.45005       -0.834
       24.96534       21.99565       19.27104        0.417
       24.28998       21.23458       20.39200        0.417
       15.46422       18.81787       27.65900       -0.834
       16.07813       19.36108       27.16476        0.417
       15.49314       17.96600       27.22343        0.417
       15.58904       22.92763       22.44090       -0.834
       16.37817       23.45006       22.58437        0.417
       15.24268       23.24060       21.60525        0.417
       28.15249       15.09687       21.86290       -0.834
       27.35288       14.67366       22.17556        0.417
       28.00281       15.23108       20.92705        0.417
       20.60181       23.37078       15.24842       -0.834
       21.05691       23.35130       16.09029        0.417
       21.30031       23.45974       14.60002        0.417
       12.77035       23.71613        5.81132       -0.834
       12.06954       23.15258        5.48341        0.417
       12.40186       24.12690        6.59344        0.417
       25.20888        9.17657       26.71794       -0.834
       24.35166        9.12073       26.29570        0.417
       25.83608        9.07035       26.00269        0.417
       26.60982       10.26232        9.77828       -0.834
       26.60970       11.21950        9.78405        0.417
       26.02799       10.02661        9.05568        0.417
       17.99512       11.51960        3.85927       -0.834
       17.16218       11.37724        4.30891        0.417
       18.20436       10.67167        3.46753        0.417
       19.66437       30.99256       19.93393       -0.834
       19.98679       30.72054       19.07470        0.417
       20.20018       31.75231       20.16182        0.417
       17.95693       24.42173       22.28358       -0.834
       18.66245       24.41401       21.63673        0.417
       17.63639       25.32365       22.27832        0.417
       13.21529       27.35046       18.78594       -0.834
       13.57856       26.87389       19.53237        0.417
       13.85653       28.03768       18.60488        0.417