%Nproc=32
%Mem=120Gb
%chk=temp.chk
#p cam-b3lyp/6-31+G(d,p) nosymm charge Freq 

Calculation for S0 with freq for abs spect

0  1
 C         15.67001       17.52951       16.07990
 C         17.29263       15.73382       15.50664
 C         17.69386       15.59301       16.75284
 C         17.02629       16.30618       17.76575
 N         16.02668       17.20797       17.42578
 H         17.67125       15.12497       14.63812
 H         18.45954       14.96849       17.03646
 O         17.17321       16.07324       18.97937
 O         14.84122       18.33227       15.79511
 N         16.36929       16.69331       15.18925
 H         15.95504       16.77448       14.32139
 H         15.50575       17.72944       18.15479
 O         18.36727       20.37305       16.91617
 H         18.53619       20.28567       17.85428
 H         19.23423       20.48195       16.52534
 O         14.49233       18.06600       12.60867
 H         14.90606       18.80806       13.04960
 H         13.55416       18.24870       12.66052
 O         16.49204       15.02033       12.81793
 H         17.17537       14.44758       12.46970
 H         15.87157       14.42525       13.23881
 O         14.97010       12.89408       13.60022
 H         15.06033       12.25413       12.89414
 H         15.41409       12.49192       14.34680
 O         20.34271       15.52844       15.21192
 H         19.65468       15.13705       15.75012
 H         20.92772       15.95136       15.84052
 O         11.90424       14.63087       16.99362
 H         12.45625       13.97730       17.42299
 H         12.00717       14.45487       16.05839
 O         16.23890       11.65351       15.39734
 H         16.43125       10.71764       15.33916
 H         16.43952       11.88381       16.30450
 O         19.81503       13.48819       16.96826
 H         20.50307       13.43222       17.63136
 H         19.68783       12.58511       16.67759
 O         12.36397       15.62827       13.48130
 H         12.17710       16.22594       14.20525
 H         11.69498       15.82795       12.82646
 O         13.75879       12.70637       17.69480
 H         14.62301       12.34930       17.89938
 H         13.34768       12.03954       17.14474
 O         16.36894       19.57807       19.53148
 H         16.45380       20.53092       19.49804
 H         15.44868       19.41178       19.32727
 O         15.10147       20.87541       14.27208
 H         15.01378       20.17680       14.92053
 H         14.29935       21.38970       14.36342
 O         20.12597       13.72800       12.91013
 H         20.08516       14.29059       13.68347
 H         20.72283       14.18136       12.31477
 O         19.74340       19.29349       12.91910
 H         18.82005       19.47943       13.08960
 H         20.19813       20.10309       13.15147
 O         17.44495       14.65617       20.19659
 H         17.09749       14.36249       21.03877
 H         16.97766       15.47167       20.01542
 O         20.31604       15.70642       19.99889
 H         19.73401       15.12181       20.48438
 H         19.75781       16.09655       19.32628
 O         16.44936       17.23812       20.78223
 H         16.32822       18.14644       20.50563
 H         17.04331       17.29242       21.53090
 O         16.91603       12.51987       17.99948
 H         17.76970       12.15589       17.76494
 H         17.03360       12.85360       18.88888
 O         16.20762       21.85840       16.59301
 H         16.83215       21.14596       16.72950
 H         15.92816       21.76146       15.68266
 O         17.02766       17.59138       11.89758
 H         16.13046       17.79239       12.16376
 H         17.18790       16.71163       12.23906
 O         14.40159       15.70193       21.23346
 H         14.94443       16.43986       20.95592
 H         14.49409       15.68083       22.18595
 O         11.72461       17.46388       15.83805
 H         12.00316       16.74988       16.41150
 H         12.01458       18.25853       16.28601
 O         19.06646       19.55544       19.41994
 H         19.50266       19.05358       20.10849
 H         18.13448       19.37856       19.54781
 
        8.52664       12.31382        6.88000       -0.834
        9.14464       12.99564        7.14351        0.417
        7.91354       12.75876        6.29487        0.417
       24.58371       19.88256        6.48859       -0.834
       24.49896       20.81587        6.29369        0.417
       24.22683       19.44288        5.71687        0.417
       28.88328       11.21826       17.42788       -0.834
       28.29862       11.87302       17.80957        0.417
       29.28633       11.66225       16.68179        0.417
       21.93173       21.19667        4.02199       -0.834
       21.76282       21.78324        4.75930        0.417
       21.24813       20.52958        4.08452        0.417
       27.76845       22.49679       16.19426       -0.834
       27.82184       21.57747       15.93302        0.417
       27.81948       22.47806       17.14992        0.417
       19.94674       13.00643        9.39295       -0.834
       19.83244       12.71070        8.48978        0.417
       20.19322       13.92801        9.31434        0.417
       12.03615       17.79921       21.95656       -0.834
       12.08687       16.91066       22.30889        0.417
       11.34568       18.22110       22.46793        0.417
        9.07991       23.99879       15.44693       -0.834
        8.70711       23.91323       16.32438        0.417
        9.91200       24.45198       15.58285        0.417
       10.49727       12.50835       11.89514       -0.834
        9.56243       12.63009       11.72932        0.417
       10.71398       11.68632       11.45521        0.417
       11.57749       25.44144       15.59098       -0.834
       11.18612       26.31194       15.51830        0.417
       12.52112       25.59933       15.56134        0.417
       25.87466       20.42010       19.92883       -0.834
       26.26844       21.15344       19.45620        0.417
       26.61699       19.96292       20.32399        0.417
       22.33014       19.20292       10.65969       -0.834
       22.90284       18.94822       11.38313        0.417
       22.09981       20.11332       10.84501        0.417
        4.87878       15.93826       12.37200       -0.834
        4.56557       16.72560       12.81724        0.417
        5.38333       16.26778       11.62831        0.417
       21.09022        7.78350       15.66820       -0.834
       21.23837        7.25464       16.45215        0.417
       21.89767        7.69376       15.16204        0.417
       17.02809       21.03911       23.65948       -0.834
       16.96732       21.85635       23.16484        0.417
       16.14090       20.68028       23.64004        0.417
       25.04237       19.17708       28.27327       -0.834
       25.93733       19.48467       28.41707        0.417
       24.78732       18.78248       29.10722        0.417
        8.59493       12.18920       22.98700       -0.834
        9.33541       12.79576       22.98777        0.417
        8.68429       11.70244       22.16767        0.417
       29.03780       13.23013       22.10613       -0.834
       29.46275       14.02343       22.43220        0.417
       29.70152       12.80977       21.55932        0.417
       13.17979        8.03281       26.63759       -0.834
       13.34080        7.10320       26.47596        0.417
       13.93165        8.47808       26.24684        0.417
       26.83808        7.46899       15.86367       -0.834
       26.76058        8.33356       15.46025        0.417
       27.62112        7.52884       16.41094        0.417
       10.21272        7.87960       21.54886       -0.834
       10.00217        8.28724       22.38894        0.417
        9.88332        8.49525       20.89411        0.417
       11.51995       14.11469        2.78145       -0.834
       10.59111       14.12861        3.01232        0.417
       11.97476       14.04268        3.62059        0.417
       11.59729       25.16209       28.36368       -0.834
       12.54749       25.15621       28.24828        0.417
       11.28986       24.40749       27.86139        0.417
       27.48225       14.84500       20.37733       -0.834
       26.78745       14.23070       20.61425        0.417
       28.25974       14.51256       20.82589        0.417
        8.57257       18.09139       27.01985       -0.834
        7.85929       17.48515       26.82004        0.417
        8.45272       18.81430       26.40400        0.417
       11.41792       25.48826        5.10239       -0.834
       12.27096       25.58621        4.67935        0.417
       11.53007       24.74939        5.70049        0.417
       23.31529       11.27553        4.43534       -0.834
       24.12723       11.64497        4.78246        0.417
       23.57128       10.42391        4.08117        0.417
       18.80446       11.01576        2.17381       -0.834
       19.61623       10.69349        1.78215        0.417
       18.71269       10.51345        2.98344        0.417
       11.64418       25.65559       20.79641       -0.834
       11.57971       24.85680       20.27294        0.417
       12.49921       25.59498       21.22243        0.417
       17.55617       18.79762       25.15984       -0.834
       18.37482       19.09452       25.55720        0.417
       17.27191       19.53342       24.61759        0.417
       29.56842       21.40212       19.19152       -0.834
       30.13970       21.10417       19.89941        0.417
       29.42743       20.62341       18.65304        0.417
       18.02472       10.42385        9.51081       -0.834
       17.54561       11.25200        9.48157        0.417
       18.29494       10.33506       10.42478        0.417
       15.68226       16.41570       24.24910       -0.834
       16.50772       15.93138       24.26591        0.417
       15.93667       17.32836       24.38532        0.417
       23.94512       18.37450       12.78315       -0.834
       23.20302       17.86511       13.10878        0.417
       24.40361       18.66218       13.57262        0.417
       21.03963       18.38973        3.34725       -0.834
       20.30300       18.14693        2.78634        0.417
       20.65332       18.50099        4.21594        0.417
        9.99676       18.33212       23.73716       -0.834
        9.29266       17.70108       23.88636        0.417
        9.80584       19.05149       24.33906        0.417
       11.48468       13.45036       29.08235       -0.834
       11.06389       14.29805       28.93889        0.417
       11.99609       13.29871       28.28756        0.417
       10.66993       20.05177       19.29512       -0.834
        9.98093       20.36531       18.70929        0.417
       10.25663       19.34965       19.79755        0.417
        7.43514       22.24579        9.77541       -0.834
        7.21133       23.06513       10.21679        0.417
        8.38914       22.26665        9.69999        0.417
       10.64085       22.07280       24.55769       -0.834
       10.32990       22.96903       24.42992        0.417
       10.76512       21.73325       23.67141        0.417
       21.43051       11.82946       11.20015       -0.834
       21.12731       12.52061       11.78889        0.417
       20.92495       11.95885       10.39772        0.417
       25.70282       27.45234       18.83498       -0.834
       25.95071       26.54750       18.64510        0.417
       25.85633       27.92048       18.01430        0.417
       25.67743       21.85507       26.38842       -0.834
       25.94409       21.76046       27.30285        0.417
       24.85615       22.34518       26.42742        0.417
       20.06046       16.46325        6.32461       -0.834
       19.41664       16.23891        5.65275        0.417
       20.22845       17.39649        6.19393        0.417
        7.71402       16.75563       12.65752       -0.834
        7.28814       17.60457       12.77653        0.417
        7.51156       16.27127       13.45792        0.417
        8.94324        8.92978        9.38841       -0.834
        8.81527        8.00121        9.19448        0.417
        9.07084        9.33839        8.53227        0.417
       17.41481       23.57361       20.06592       -0.834
       17.66555       23.94689       20.91092        0.417
       18.05342       22.87736       19.91213        0.417
       22.77245        5.76506       23.41356       -0.834
       22.23350        5.74389       24.20432        0.417
       23.66797        5.86626       23.73612        0.417
        4.01917       18.84835       23.73623       -0.834
        3.17431       18.67326       23.32177        0.417
        4.23048       19.74621       23.48045        0.417
       19.20805       21.89113        5.15723       -0.834
       18.95151       22.68239        4.68361        0.417
       19.27976       22.17040        6.06997        0.417
       16.52452       27.45407       11.33082       -0.834
       17.04214       27.11709       12.06209        0.417
       16.36006       28.36994       11.55514        0.417
       19.21533       11.67362       27.47666       -0.834
       19.52727       12.53038       27.18532        0.417
       18.54201       11.87195       28.12745        0.417
        8.28285       22.60770       22.04793       -0.834
        8.82345       21.85115       21.82074        0.417
        8.90485       23.25751       22.37518        0.417
       14.06364       11.94567       22.14989       -0.834
       14.47878       11.45451       21.44091        0.417
       13.61006       12.66477       21.71014        0.417
        5.78886       12.95319       13.06670       -0.834
        6.55442       13.07490       12.50515        0.417
        5.25045       13.72892       12.90988        0.417
       13.65968        9.14064       11.70413       -0.834
       12.83920        9.35859       11.26193        0.417
       14.17774        9.94423       11.65847        0.417
       21.24857       13.82497       27.83089       -0.834
       21.26498       14.22393       26.96095        0.417
       21.61751       12.95130       27.70124        0.417
       25.86910       13.57220       23.09213       -0.834
       25.98304       12.92566       23.78872        0.417
       25.79134       13.05209       22.29233        0.417
       29.46438       16.74523       18.81074       -0.834
       29.84371       16.03636       18.29128        0.417
       28.54597       16.49829       18.91929        0.417
       10.96592       21.65662       21.92984       -0.834
       11.84869       22.01040       21.82125        0.417
       10.80572       21.16063       21.12698        0.417
       11.89285        9.95131       25.00507       -0.834
       12.57156       10.62131       24.92332        0.417
       12.29117        9.27124       25.54827        0.417
       13.94797       14.35784       11.04862       -0.834
       14.61913       15.02481       11.19330        0.417
       13.54474       14.23284       11.90769        0.417
       23.12007        4.53555       18.96935       -0.834
       22.35218        5.02352       18.67193        0.417
       23.65927        4.43513       18.18487        0.417
       10.20314       14.64401        7.75726       -0.834
        9.52783       15.32104        7.71456        0.417
       10.76475       14.91080        8.48503        0.417
       22.11545        3.82022       14.55053       -0.834
       21.41091        4.19542       14.02225        0.417
       21.69820        3.59535       15.38213        0.417
       12.46489       17.48302        5.93846       -0.834
       11.71031       17.80060        5.44249        0.417
       12.30434       17.77802        6.83480        0.417
       26.14330       24.16110       20.98699       -0.834
       25.52162       24.76421       20.57957        0.417
       25.87177       24.11975       21.90394        0.417
        2.52456       12.09435       19.43516       -0.834
        1.96618       11.91945       18.67763        0.417
        3.41663       12.05113       19.09083        0.417
       19.00924        7.85350       14.09916       -0.834
       19.70633        7.74593       14.74625        0.417
       19.32074        8.55307       13.52488        0.417
       13.04439        5.02503       25.79919       -0.834
       12.95072        4.21101       25.30440        0.417
       13.95832        5.27949       25.67180        0.417
       21.72612       22.45312       23.06353       -0.834
       22.05466       22.86996       23.86011        0.417
       22.51392       22.18495       22.59057        0.417
       22.98686       22.03161       27.96289       -0.834
       23.27608       22.09507       28.87314        0.417
       23.05230       21.09961       27.75471        0.417
       28.33445       21.34817       24.76366       -0.834
       27.53160       21.83340       24.95395        0.417
       28.72051       21.17668       25.62261        0.417
        9.84210        5.35797       20.90304       -0.834
       10.04232        6.27997       21.06444        0.417
        9.26863        5.36751       20.13670        0.417
       26.36047       20.25459        8.83968       -0.834
       26.01109       20.37172        9.72311        0.417
       25.59183       20.06888        8.30030        0.417
       30.67059       20.52097       10.95198       -0.834
       29.72726       20.66186       10.87131        0.417
       31.02204       21.37925       11.18875        0.417
       19.81195       17.58179       27.10038       -0.834
       20.19265       17.47257       26.22896        0.417
       20.43469       18.13994       27.56610        0.417
        8.57037       20.19281       25.49589       -0.834
        9.01448       20.98995       25.78498        0.417
        7.73237       20.49769       25.14797        0.417
       11.94928       13.13986       25.75394       -0.834
       12.80523       12.78943       25.50741        0.417
       11.72675       13.74784       25.04890        0.417
        3.41758       14.96237       16.47993       -0.834
        3.11659       14.81095       17.37587        0.417
        3.93268       14.18470       16.26515        0.417
       20.67459       18.24630       21.40112       -0.834
       21.50890       18.59986       21.09265        0.417
       20.85701       17.32430       21.58240        0.417
        8.20678       14.47672       18.04285       -0.834
        7.86145       14.33007       18.92345        0.417
        8.14517       15.42341       17.91547        0.417
       27.29863       13.37427       17.79471       -0.834
       26.34868       13.25883       17.77202        0.417
       27.46870       13.79947       18.63526        0.417
       18.91101       23.98985       14.32879       -0.834
       18.62647       24.01290       13.41515        0.417
       19.57521       23.30114       14.35598        0.417
       24.10740       22.53621        6.58193       -0.834
       24.20482       22.63792        7.52872        0.417
       23.27061       22.95502        6.38042        0.417
       16.85116       20.99396        7.73445       -0.834
       17.63750       21.19999        7.22903        0.417
       16.25601       20.59437        7.10013        0.417
       27.11836       26.99390       13.80719       -0.834
       26.85184       27.09274       12.89317        0.417
       27.08879       26.05028       13.96509        0.417
        8.96471        9.62885        6.65661       -0.834
        8.58790       10.47025        6.39913        0.417
        9.86642        9.66190        6.33715        0.417
        5.78251       10.64355       21.23325       -0.834
        6.48919       11.28388       21.15064        0.417
        6.10037        9.87325       20.76226        0.417
       17.86521        5.56437       12.99101       -0.834
       18.17484        6.39424       13.35387        0.417
       18.65108        5.15026       12.63444        0.417
       15.92663       11.35289        5.62763       -0.834
       16.36606       10.61119        5.21168        0.417
       16.61158       12.01462        5.72352        0.417
       11.30063       10.52259        5.54005       -0.834
       10.83396       10.34839        4.72268        0.417
       12.01244       11.11135        5.28921        0.417
       29.51153       17.70729       12.96895       -0.834
       29.06552       18.27070       12.33659        0.417
       30.16972       17.24159       12.45307        0.417
       11.38156        6.60342        9.53574       -0.834
       10.62220        6.30930        9.03265        0.417
       11.42756        7.54542        9.37218        0.417
       28.32756       10.71479       12.93438       -0.834
       27.68753       10.49682       13.61194        0.417
       27.85870       10.58357       12.11026        0.417
       19.89651       20.40802       26.30112       -0.834
       20.30851       20.28659       25.44570        0.417
       20.60327       20.72122       26.86559        0.417
       23.58193       25.21355       21.37880       -0.834
       23.43518       25.70155       20.56853        0.417
       24.14820       25.78120       21.90162        0.417
       23.95929       12.22157       13.61272       -0.834
       23.10751       11.78505       13.62491        0.417
       23.75018       13.15561       13.60379        0.417
       27.97819       24.39205       14.29314       -0.834
       28.01393       23.61717       14.85397        0.417
       28.60514       25.00049       14.68425        0.417
       14.70258        8.81999        6.07514       -0.834
       14.96612        9.72324        6.25096        0.417
       15.46467        8.42594        5.65067        0.417
        4.50793       21.47524        8.83543       -0.834
        5.35078       21.92821        8.86081        0.417
        4.61411       20.73693        9.43532        0.417
       19.16831       29.71572       17.96266       -0.834
       19.26931       29.85598       18.90412        0.417
       18.26813       29.98200       17.77557        0.417
       21.33559        6.94353       26.11025       -0.834
       22.27777        7.01620       26.26271        0.417
       20.94847        6.96537       26.98540        0.417
       11.40348       27.41765        8.01587       -0.834
       12.05898       27.52824        7.32716        0.417
       11.34232       26.47039        8.13911        0.417
       15.21789        6.87101       22.61882       -0.834
       14.55641        7.11937       21.97307        0.417
       15.04132        5.94793       22.80041        0.417
       15.95041        6.88117       28.05780       -0.834
       16.48309        6.52561       28.76918        0.417
       16.50161        7.55424       27.65856        0.417
       28.19758       23.68882       11.23471       -0.834
       28.04125       22.77554       11.47495        0.417
       27.86497       24.19268       11.97750        0.417
       11.78151       18.92275        8.11814       -0.834
       12.47799       19.56349        8.26166        0.417
       11.26661       18.94324        8.92480        0.417
       24.11675        9.06808       24.49151       -0.834
       23.57926        9.71650       24.03666        0.417
       24.62126        8.64475       23.79689        0.417
       10.85887       17.65021        2.25821       -0.834
       10.15545       17.50902        2.89185        0.417
       11.21694       18.50860        2.48446        0.417
       18.15585       13.04653        5.85747       -0.834
       18.11021       13.92225        5.47371        0.417
       19.00237       13.02389        6.30370        0.417
       27.86467       18.65189       10.95906       -0.834
       27.07608       18.11973       10.85343        0.417
       28.36221       18.50598       10.15446        0.417
        2.31293       15.48270       18.97675       -0.834
        1.45837       15.16304       18.68730        0.417
        2.22629       16.43596       18.97341        0.417
        8.05238       27.66551        9.90059       -0.834
        8.94344       27.32669        9.81433        0.417
        7.86817       27.62018       10.83880        0.417
       26.58916       14.94067        9.33544       -0.834
       27.48005       15.05994        9.66457        0.417
       26.28101       14.14081        9.76146        0.417
       28.83916       24.25155       21.69431       -0.834
       27.88336       24.27512       21.64828        0.417
       29.08978       25.14289       21.93707        0.417
       30.05031       12.52692       14.93077       -0.834
       30.16833       11.63437       14.60575        0.417
       30.77947       13.01841       14.55263        0.417
       12.63781       29.27092       23.73286       -0.834
       12.41170       28.61607       23.07235        0.417
       11.83908       29.78690       23.84252        0.417
       28.33168       17.08200       15.21335       -0.834
       28.19468       16.14054       15.10793        0.417
       28.53561       17.39500       14.33207        0.417
       13.61046       27.03766       13.78233       -0.834
       13.85575       27.78330       13.23453        0.417
       14.29766       26.99188       14.44708        0.417
       17.41159       15.19473        1.77194       -0.834
       18.14539       14.62892        2.01202        0.417
       16.69016       14.59061        1.59642        0.417
       18.01189       17.90258       22.65521       -0.834
       17.95832       18.11536       23.58692        0.417
       18.75505       18.41365       22.33467        0.417
        6.56761       19.17809       21.92525       -0.834
        6.01724       18.56866       22.41711        0.417
        6.53559       19.99100       22.42961        0.417
       11.13338       16.62961       18.87181       -0.834
       10.99244       15.82295       18.37617        0.417
       11.74423       16.38132       19.56567        0.417
       13.53037       21.87647       20.38104       -0.834
       12.88479       22.26138       19.78834        0.417
       13.50526       20.93939       20.18743        0.417
       20.70846       25.12925       20.71914       -0.834
       20.39448       24.82575       21.57093        0.417
       21.63212       24.87875       20.70068        0.417
       17.01217        4.52312        7.61212       -0.834
       16.06429        4.40229        7.66840        0.417
       17.37110        3.90525        8.24901        0.417
       24.25224       23.87332       16.07697       -0.834
       23.74192       23.36541       16.70771        0.417
       23.76486       24.69105       15.97693        0.417
        8.32296       24.61556        7.74399       -0.834
        7.58972       25.20439        7.92252        0.417
        8.91779       24.74201        8.48319        0.417
        5.64583       11.96633        9.92107       -0.834
        5.30961       11.82785        9.03562        0.417
        6.37128       12.58065        9.80896        0.417
        8.19388       20.38138       17.74369       -0.834
        7.95060       19.45691       17.79264        0.417
        7.36753       20.83914       17.58925        0.417
        7.04608       25.27270       14.31188       -0.834
        7.61077       24.58275       14.66019        0.417
        6.50815       25.54135       15.05666        0.417
       25.84641       11.32079       24.66916       -0.834
       25.24687       10.66283       25.02113        0.417
       26.28821       11.67915       25.43897        0.417
       23.54623       23.30421        9.33613       -0.834
       23.53287       24.23212        9.57075        0.417
       24.44532       23.02562        9.51005        0.417
       20.11860        9.47995        7.59939       -0.834
       19.34999        9.81461        8.06142        0.417
       20.34396        8.67272        8.06179        0.417
       18.80271        7.15554        4.65250       -0.834
       18.19707        7.08534        5.39041        0.417
       19.40025        6.41571        4.76124        0.417
       23.15584       13.71566       20.79995       -0.834
       22.59933       12.94862       20.66520        0.417
       23.10587       14.19653       19.97382        0.417
       23.58057       19.11460       20.26780       -0.834
       24.49240       19.38874       20.16961        0.417
       23.39563       19.22583       21.20036        0.417
       16.22302        8.13355        9.31340       -0.834
       16.25358        7.62537       10.12399        0.417
       16.87947        8.81944        9.43527        0.417
       14.28926       25.52329       22.58682       -0.834
       14.98630       26.12378       22.85099        0.417
       14.72014       24.67144       22.51670        0.417
       14.22315        6.43789       14.46935       -0.834
       14.67489        6.38792       15.31177        0.417
       14.91223        6.64993       13.83972        0.417
       19.62765       29.07556       10.94731       -0.834
       19.63253       28.17223       11.26385        0.417
       19.76113       29.60587       11.73292        0.417
       23.37486       15.21502       23.07564       -0.834
       23.27298       14.63421       22.32164        0.417
       24.10791       15.78466       22.84245        0.417
       31.50420       16.27053       20.93231       -0.834
       31.04080       16.14492       21.76039        0.417
       30.96378       16.89400       20.44706        0.417
       14.74286       26.64586       20.15044       -0.834
       14.83885       25.98183       20.83314        0.417
       15.53148       26.55579       19.61547        0.417
       17.84730       12.85105       11.45235       -0.834
       18.65654       13.31103       11.67544        0.417