%Nproc=32
%Mem=120Gb
%chk=temp.chk
#p cam-b3lyp/6-31+G(d,p) nosymm charge Freq 

Calculation for S0 with freq for abs spect

0  1
 C         15.67001       17.52951       16.07990
 C         17.29263       15.73382       15.50664
 C         17.69386       15.59301       16.75284
 C         17.02629       16.30618       17.76575
 N         16.02668       17.20797       17.42578
 H         17.67125       15.12497       14.63812
 H         18.45954       14.96849       17.03646
 O         17.17321       16.07324       18.97937
 O         14.84122       18.33227       15.79511
 N         16.36929       16.69331       15.18925
 H         15.95504       16.77448       14.32139
 H         15.50575       17.72944       18.15479
 O         16.97556       11.73678       17.02718
 H         16.25997       11.76788       17.66216
 H         17.76569       11.87699       17.54897
 O         20.92172       16.67208       13.19127
 H         20.42833       16.75298       12.37502
 H         20.26476       16.77411       13.87991
 O         17.48238       20.01837       12.98585
 H         17.87797       19.58928       13.74455
 H         16.86713       20.64877       13.36039
 O         18.79736       12.52915       18.77735
 H         19.62413       12.92586       18.50291
 H         18.79933       12.60603       19.73146
 O         17.58665       17.68032       20.57867
 H         18.31495       17.20162       20.97448
 H         17.25672       17.09472       19.89716
 O         13.68528       19.84182       16.73912
 H         13.43441       19.69830       17.65164
 H         13.07055       20.50369       16.42248
 O         20.60938       17.45466       16.77662
 H         21.47773       17.36079       16.38498
 H         20.70754       17.10878       17.66373
 O         16.18869       21.33262       17.25363
 H         17.02704       20.87071       17.24735
 H         15.53657       20.64841       17.10252
 O         17.92060       12.90981       14.87584
 H         18.15179       13.70697       15.35261
 H         17.48472       12.35909       15.52618
 O         14.39753       14.80509       20.42501
 H         14.52799       13.87296       20.59923
 H         15.23382       15.10143       20.06580
 O         13.59493       14.26597       13.36830
 H         13.59985       15.12324       13.79408
 H         12.70852       14.17699       13.01816
 O         13.19211       17.08420       13.41120
 H         13.25621       16.89861       12.47436
 H         12.26709       16.95264       13.61918
 O         19.55897       18.99574       14.61753
 H         20.07116       19.77279       14.84133
 H         19.87711       18.31849       15.21448
 O         16.22423       15.78444       12.23934
 H         16.18508       16.25028       11.40406
 H         15.31184       15.72109       12.52178
 O         18.62278       19.74312       17.81595
 H         18.33550       19.20350       18.55249
 H         19.26367       19.20052       17.35652
 O         14.05989       12.29553       15.43021
 H         13.76318       13.02638       14.88795
 H         14.66738       12.69145       16.05506
 
       12.16615        7.47517       25.17200       -0.834
       12.91405        7.83110       25.65180        0.417
       11.70508        6.93430       25.81317        0.417
       18.29537        8.52859       25.35976       -0.834
       17.55382        9.07492       25.09927        0.417
       18.91697        9.14009       25.75461        0.417
       24.33067       14.99491       23.39055       -0.834
       24.85481       14.69424       24.13292        0.417
       24.96268       15.10773       22.68058        0.417
        7.28158        9.80216       23.43857       -0.834
        7.67946        9.98968       22.58842        0.417
        6.34076        9.89567       23.28910        0.417
       16.24606       13.19949        6.19848       -0.834
       16.21016       14.15459        6.25077        0.417
       16.34220       13.01373        5.26441        0.417
       17.57854       16.47270        1.64754       -0.834
       18.07220       16.91497        0.95694        0.417
       17.16900       17.18261        2.14205        0.417
        8.97247       25.58396       24.07644       -0.834
        8.23429       26.13037       23.80672        0.417
        9.44738       25.40456       23.26496        0.417
       28.73310       22.04970       20.49083       -0.834
       28.52128       21.17669       20.82131        0.417
       28.83486       21.93067       19.54653        0.417
       25.72679       20.14737        4.35541       -0.834
       26.18473       19.30788        4.31337        0.417
       24.81740       19.91551        4.54380        0.417
       11.42360        9.08036       23.07405       -0.834
       11.75647        8.49520       23.75451        0.417
       11.17129        8.49705       22.35828        0.417
       13.35959       24.18356       12.86715       -0.834
       13.38245       24.36273       11.92714        0.417
       12.43165       24.05665       13.06476        0.417
       10.01302       18.77637        7.07344       -0.834
        9.27685       18.61637        7.66394        0.417
       10.40523       17.91353        6.93960        0.417
       21.19036       13.99383       18.15410       -0.834
       21.89858       13.34988       18.15353        0.417
       21.31998       14.49240       18.96086        0.417
       26.39412       10.12965       16.95506       -0.834
       27.02979       10.62148       17.47493        0.417
       25.70963        9.88783       17.57894        0.417
        5.26527       18.72287       11.47155       -0.834
        5.11681       19.38928       10.80067        0.417
        4.46950       18.73624       12.00334        0.417
       25.68144       16.64918        9.17614       -0.834
       24.90161       16.48134        9.70523        0.417
       26.15478       15.81721        9.17571        0.417
       14.62332       19.08888        4.61819       -0.834
       15.40907       18.96659        5.15099        0.417
       14.83931       18.68762        3.77642        0.417
        6.59683        7.47218       14.97675       -0.834
        7.48005        7.24591       14.68530        0.417
        6.70061        8.30897       15.42979        0.417
       14.30839       11.67300       25.02227       -0.834
       13.98199       11.71289       25.92122        0.417
       13.64188       12.12477       24.50468        0.417
       23.14235       28.00205       21.21114       -0.834
       23.35917       28.91020       21.42208        0.417
       23.27206       27.93791       20.26494        0.417
        8.78395       16.23733       25.22763       -0.834
        7.85495       16.38662       25.40340        0.417
        8.83328       16.12304       24.27855        0.417
       10.54919       22.90142       19.95759       -0.834
       10.27454       23.69099       20.42382        0.417
       11.49797       22.99250       19.86954        0.417
       21.39550        4.44276        9.84869       -0.834
       22.19083        3.91039        9.86517        0.417
       20.76781        3.95296       10.38005        0.417
        5.15109       14.42151       12.25888       -0.834
        5.90481       13.97210       12.64122        0.417
        5.51946       14.94497       11.54718        0.417
        8.30456       10.15658       20.71096       -0.834
        8.15159       10.87219       20.09393        0.417
        8.17532        9.36175       20.19348        0.417
       18.76348       15.01617       10.84749       -0.834
       18.10188       15.20439       11.51314        0.417
       19.21586       15.84947       10.71638        0.417
       21.71639       13.94353        8.03765       -0.834
       22.54475       14.24242        7.66253        0.417
       21.82948       14.04735        8.98246        0.417
       13.83675       10.01720        7.81084       -0.834
       14.53712       10.64746        7.97963        0.417
       13.09832       10.33397        8.33104        0.417
        5.96647        5.85086       17.10947       -0.834
        5.74019        4.95635       16.85473        0.417
        6.48023        6.18685       16.37504        0.417
       12.63780       24.86486       16.91401       -0.834
       13.38804       24.33654       16.64153        0.417
       12.84761       25.13680       17.80746        0.417
       20.85506        2.72022       16.00921       -0.834
       19.98625        3.06952       15.81074        0.417
       21.45518        3.43554       15.79852        0.417
       29.58894       18.03901       15.98258       -0.834
       29.87227       17.63057       15.16457        0.417
       29.03609       18.77014       15.70684        0.417
       23.49078       10.82831       10.38415       -0.834
       22.58687       11.06946       10.58673        0.417
       23.78925       10.34650       11.15552        0.417
        7.93705        7.89281       19.01666       -0.834
        7.81246        6.99476       19.32360        0.417
        8.38650        7.79918       18.17674        0.417
       11.08824       16.40406        6.45943       -0.834
       10.87296       15.53669        6.80229        0.417
       12.04002       16.39275        6.35841        0.417
       10.78884        7.49695       21.09959       -0.834
       10.12119        7.51688       20.41396        0.417
       10.88462        6.56910       21.31439        0.417
       10.64190       25.47619       15.31462       -0.834
       10.88088       26.21894       14.76014        0.417
       11.30730       25.46643       16.00264        0.417
       12.22953       23.18609       24.96321       -0.834
       12.06856       22.75407       24.12435        0.417
       12.62437       24.02595       24.72875        0.417
       17.87628       25.06977       24.23880       -0.834
       18.46267       25.79105       24.46709        0.417
       18.45265       24.31068       24.15041        0.417
       19.87578       23.14945       24.72853       -0.834
       19.19319       22.78088       25.28931        0.417
       20.47600       22.42075       24.57057        0.417
       23.25790        4.36870       17.79105       -0.834
       22.98736        3.45440       17.87526        0.417
       23.62027        4.43131       16.90731        0.417
       15.33935        4.56940       19.60905       -0.834
       15.52157        5.50730       19.66713        0.417
       16.15821        4.18474       19.29642        0.417
        7.54923       14.29754        9.24947       -0.834
        6.81807       14.74724        9.67303        0.417
        7.89871       14.93828        8.63015        0.417
       16.76515        4.21813       13.01112       -0.834
       16.82435        3.28506       13.21635        0.417
       15.94621        4.30506       12.52325        0.417
       28.65492        9.37577       14.04920       -0.834
       27.72271        9.24359       13.87674        0.417
       28.90939       10.08661       13.46083        0.417
       17.27887       16.54000        6.93285       -0.834
       17.14605       17.48703        6.89137        0.417
       17.49642       16.28863        6.03523        0.417
        4.36457       16.43641        7.95280       -0.834
        3.45534       16.44640        7.65375        0.417
        4.88219       16.46149        7.14802        0.417
        5.01501       24.87843       11.29554       -0.834
        4.78311       25.00860       12.21506        0.417
        5.47893       24.04129       11.28123        0.417
       20.73519        4.85101       21.19026       -0.834
       20.98195        5.54063       21.80651        0.417
       20.56768        5.31225       20.36842        0.417
        8.02505       19.89040       23.67612       -0.834
        8.58336       19.63130       22.94306        0.417
        8.49091       20.61876       24.08686        0.417
       15.21635        2.94995       21.88886       -0.834
       15.40946        3.64375       22.51941        0.417
       15.10413        3.40741       21.05558        0.417
       22.36583       18.52510       28.98213       -0.834
       22.23163       19.03345       29.78201        0.417
       23.27014       18.21716       29.04237        0.417
       20.90620       19.82322       31.25393       -0.834
       20.89712       20.71794       31.59396        0.417
       20.14430       19.77829       30.67625        0.417
       17.49238        1.58091       14.36944       -0.834
       18.01242        0.89889       14.79446        0.417
       17.08640        2.05883       15.09262        0.417
        5.64912       16.09309       10.24997       -0.834
        5.01240       16.17916        9.54045        0.417
        5.90525       16.99276       10.45302        0.417
       12.06471       20.07527        4.28062       -0.834
       13.01592       19.98113        4.22992        0.417
       11.73017       19.18284        4.19177        0.417
       25.07982        5.16419       11.69627       -0.834
       25.97943        5.49044       11.71873        0.417
       25.16131        4.25525       11.40747        0.417
       22.10289       21.49283       18.06625       -0.834
       22.00456       22.28991       18.58704        0.417
       22.79076       21.70230       17.43445        0.417
       28.15807       23.15395       13.04547       -0.834
       28.55859       23.99500       13.26557        0.417
       27.24139       23.24975       13.30383        0.417
       18.54952        7.60101       16.71105       -0.834
       17.80246        7.57543       17.30894        0.417
       18.21367        7.23768       15.89164        0.417
        5.75418       12.26654       25.15424       -0.834
        6.59092       11.89460       25.43309        0.417
        5.65849       13.06179       25.67832        0.417
       19.83455       29.61016       17.16758       -0.834
       19.07793       29.17605       16.77348        0.417
       20.58420       29.28576       16.66856        0.417
       18.86120       27.39609       22.02140       -0.834
       18.65567       26.53136       21.66609        0.417
       19.36849       27.21595       22.81287        0.417
       12.22189       10.03337       29.99457       -0.834
       12.54132        9.57476       30.77166        0.417
       12.83986       10.75367       29.87002        0.417
        6.85422       21.94214       26.42415       -0.834
        6.78705       20.98803       26.46132        0.417
        7.59860       22.10797       25.84568        0.417
       26.92552       16.94371       16.89602       -0.834
       27.84968       17.14533       16.74934        0.417
       26.51855       17.04369       16.03543        0.417
       24.02523        5.14268       22.24766       -0.834
       23.42261        5.74581       22.68276        0.417
       24.89619        5.47209       22.46937        0.417
       15.92586       19.72105       21.06586       -0.834
       16.38136       20.41901       20.59511        0.417
       16.56873       19.01463       21.12849        0.417
       10.96370       12.09098       13.53517       -0.834
       11.03049       12.52441       14.38600        0.417
       10.44288       12.69041       13.00070        0.417
       13.02084       30.54079       11.57979       -0.834
       13.63966       30.25506       12.25184        0.417
       12.82563       29.74775       11.08056        0.417
       16.40320       24.44877       20.34566       -0.834
       16.18841       24.52115       21.27563        0.417
       15.70272       24.92496       19.89979        0.417
       19.55803       16.07450       21.51530       -0.834
       20.35259       16.27137       22.01144        0.417
       19.24372       15.24868       21.88335        0.417
       20.71465       18.89412        6.60424       -0.834
       20.48422       18.03129        6.94870        0.417
       20.84214       19.43692        7.38228        0.417
       26.24071       15.02732       21.67295       -0.834
       27.18919       15.05030       21.79984        0.417
       26.12621       15.00275       20.72294        0.417
       13.38801       19.44357       19.43429       -0.834
       13.06877       18.65648       19.87567        0.417
       14.20258       19.65959       19.88820        0.417
       12.85652       28.37009        9.80475       -0.834
       13.01472       29.03938        9.13898        0.417
       12.35992       27.69063        9.34874        0.417
       25.27219       25.96741       11.62785       -0.834
       25.56164       26.69427       12.17934        0.417
       25.42447       25.18671       12.16035        0.417
       25.35403       23.37624       12.93759       -0.834
       25.33054       22.42934       13.07564        0.417
       24.58622       23.70595       13.40447        0.417
       15.37424       12.62918       12.00609       -0.834
       15.16491       13.00421       11.15066        0.417
       15.14768       13.31728       12.63173        0.417
       21.30399       11.98552        3.01928       -0.834
       20.83919       11.14904        2.99715        0.417
       21.98263       11.86547        3.68356        0.417
       25.93994       12.18393       24.62950       -0.834
       25.42291       11.67004       25.24984        0.417
       25.90854       13.07691       24.97278        0.417
       17.18595       19.18748        6.59741       -0.834
       17.47263       19.67543        5.82543        0.417
       17.52188       19.69170        7.33845        0.417
        6.93729       21.42021       20.42691       -0.834
        6.31575       20.70095       20.53914        0.417
        6.91390       21.88989       21.26062        0.417
        4.69300       12.70122       22.46146       -0.834
        4.96313       12.36816       23.31722        0.417
        4.33873       11.93672       22.00731        0.417
       14.56217       18.20258        8.82937       -0.834
       14.63001       19.15645        8.87151        0.417
       14.38201       18.01527        7.90812        0.417
        8.05895       25.26334       16.62266       -0.834
        7.63290       26.04992       16.28206        0.417
        8.91391       25.24813       16.19249        0.417
        9.43383        8.15456       13.70036       -0.834
       10.17161        7.96256       14.27919        0.417
        9.77563        8.80044       13.08209        0.417
       16.43618       25.24046       26.66488       -0.834
       16.85668       24.94301       27.47168        0.417
       17.12433       25.18679       26.00171        0.417
       12.09023       14.35982       18.50473       -0.834
       11.60558       15.18476       18.53323        0.417
       12.58728       14.34512       19.32263        0.417
       22.06963        6.93254       22.71377       -0.834
       21.86364        7.12019       23.62952        0.417
       22.07791        7.79029       22.28902        0.417
       13.53912        3.62706       15.79603       -0.834
       12.59130        3.53622       15.69791        0.417
       13.71308        4.54846       15.60371        0.417
       12.97022       20.20420        7.35670       -0.834
       13.47698       20.82176        6.82940        0.417
       12.37539       19.78779        6.73299        0.417
        3.82952       12.38118       14.32951       -0.834
        3.99725       13.32303       14.29761        0.417
        4.69929       11.98385       14.37261        0.417
       22.99751       12.28556        5.39371       -0.834
       23.10948       12.86981        6.14361        0.417
       23.88152       12.17029        5.04519        0.417
       10.53319       16.55428       14.83113       -0.834
        9.73329       16.81874       14.37675        0.417
       10.69880       17.26019       15.45602        0.417
       13.92143       16.88800        6.15439       -0.834
       14.04009       16.29697        5.41086        0.417
       14.05871       17.76247        5.79014        0.417
       16.08055       15.72293        9.30806       -0.834
       15.56426       16.50733        9.49350        0.417
       16.50814       15.90913        8.47216        0.417
       14.92581       17.32340       28.76007       -0.834
       14.98426       16.72557       28.01481        0.417
       15.66113       17.92500       28.64338        0.417
       22.36908       10.65221       18.62461       -0.834
       22.90125        9.86114       18.53955        0.417
       22.87270       11.32988       18.17367        0.417
       12.19426       10.67225       16.29179       -0.834
       11.81861       11.13548       17.04048        0.417
       12.95338       11.19832       16.04036        0.417
       16.40477       18.79737        2.45882       -0.834
       17.14520       19.09020        2.99010        0.417
       16.46212       19.31960        1.65868        0.417
       22.36708       11.44598       23.87036       -0.834
       22.43822       11.46817       22.91606        0.417
       22.88492       10.68464       24.13197        0.417
        4.37238       25.41930       16.74354       -0.834
        4.38912       24.53061       17.09875        0.417
        5.12548       25.85254       17.14528        0.417
        7.85073       10.99990       13.39915       -0.834
        7.36869       10.99884       14.22612        0.417
        7.76500       10.10508       13.07024        0.417
       13.32833        8.70473       20.32020       -0.834
       13.07044        9.46172       19.79418        0.417
       12.50750        8.37706       20.68777        0.417
       29.51184       13.38611       20.46348       -0.834
       30.35823       13.18521       20.06412        0.417
       29.37494       14.31571       20.28090        0.417
       26.02750       23.86763        8.21713       -0.834
       26.33960       23.17151        8.79527        0.417
       25.22170       23.51939        7.83549        0.417
       10.85048       23.08854       14.03432       -0.834
       10.27986       23.34569       13.31009        0.417
       10.81200       23.82579       14.64359        0.417
       15.06631       27.02898        5.38184       -0.834
       14.52011       26.86174        6.14991        0.417
       15.02277       27.97717        5.25826        0.417
       29.14170       11.57213       11.47356       -0.834
       28.32511       11.70555       11.95482        0.417
       28.91043       11.73405       10.55894        0.417
       24.62588        5.95050       19.78994       -0.834
       24.16360        5.61730       20.55904        0.417
       24.28475        5.43169       19.06145        0.417
       12.76125       18.80036       28.33934       -0.834
       13.54944       18.31369       28.58047        0.417
       12.81430       18.88668       27.38752        0.417
       11.23628        4.76160       12.16870       -0.834
       10.93524        4.45556       13.02424        0.417
       10.50122        4.58986       11.58013        0.417
       23.83433        9.12165       24.17937       -0.834
       24.43672        8.94073       23.45783        0.417
       24.33809        8.92191       24.96839        0.417
       10.58862       14.00949        7.25968       -0.834
        9.91408       13.51634        6.79275        0.417
       10.47046       13.76727        8.17816        0.417
       11.79337        7.77759        6.55982       -0.834
       12.70885        7.78128        6.83930        0.417
       11.72690        7.03022        5.96547        0.417
       11.19381       10.53677        8.66399       -0.834
       11.18013       10.52460        7.70697        0.417
       10.85291       11.40007        8.89792        0.417
       28.35814       18.06523        7.06114       -0.834
       27.53563       18.41249        7.40627        0.417
       28.90434       18.83839        6.91931        0.417
       14.60924       16.47453       22.94404       -0.834
       14.44312       15.94587       22.16355        0.417
       15.41942       16.11743       23.30780        0.417
       26.59567       22.12343       16.89841       -0.834
       25.74907       22.36585       16.52327        0.417
       26.45549       22.15099       17.84489        0.417
       21.71639       23.35168       20.11057       -0.834
       21.04677       23.00682       20.70126        0.417
       22.40103       23.68341       20.69149        0.417
       27.32233       19.80344       15.25057       -0.834
       27.45124       19.89551       14.30657        0.417
       27.13047       20.69069       15.55425        0.417
       11.81661       15.11466       25.77962       -0.834
       11.26702       15.85672       25.52757        0.417
       12.14082       15.34128       26.65126        0.417
       16.86184       29.42880       23.37699       -0.834
       16.10839       29.53735       23.95730        0.417
       17.40411       28.76864       23.80869        0.417
       12.54523       22.92695       30.05790       -0.834
       12.49223       22.88983       29.10289        0.417
       11.66172       22.71052       30.35588        0.417
       23.78340       17.83727       20.95836       -0.834
       24.01834       17.42006       20.12952        0.417
       23.80929       18.77551       20.77057        0.417
       10.45278       28.38452       21.04736       -0.834
       10.21927       29.07154       21.67163        0.417
        9.89852       28.55398       20.28558        0.417
       17.04619       25.26575        4.93728       -0.834
       16.21015       25.72973        4.98204        0.417
       17.64312       25.79525        5.46599        0.417
       23.03254       16.63386       15.79582       -0.834
       23.76477       16.02932       15.67495        0.417
       22.93442       17.06476       14.94675        0.417
       17.18542       17.77603       24.21011       -0.834
       18.12493       17.80855       24.39037        0.417
       16.78949       17.52492       25.04462        0.417
       17.71335       22.64604       26.48981       -0.834
       16.83557       22.79890       26.14000        0.417
       17.61112       22.72642       27.43813        0.417
        8.46120       13.66352       13.13364       -0.834
        8.29944       12.73187       13.28227        0.417
        8.15997       14.09034       13.93571        0.417
       12.05852        7.09316       11.14413       -0.834
       11.92172        6.28332       11.63573        0.417
       11.20739        7.53081       11.16096        0.417
       17.08802       15.43676       31.49648       -0.834
       16.74329       14.56651       31.29635        0.417
       17.99583       15.28119       31.75708        0.417
        5.86430       17.63684        5.91502       -0.834
        6.79999       17.55454        5.73082        0.417
        5.46065       16.91395        5.43468        0.417
       28.59402       16.16277       23.07655       -0.834
       28.37706       16.20578       24.00784        0.417
       29.42083       16.63901       23.00051        0.417
       11.86570        2.07925       18.47911       -0.834
       11.91532        3.03231       18.55272        0.417
       12.77547        1.79848       18.38051        0.417
        8.75986       11.88417       16.69391       -0.834
        8.48971       12.11454       17.58283        0.417
        9.24704       12.64824       16.38554        0.417
       10.76621       18.82169       16.30979       -0.834
       10.26518       19.55066       16.67556        0.417
       11.55994       19.22720       15.96082        0.417
        7.07107       23.09882       22.58324       -0.834
        6.64219       23.94215       22.43803        0.417
        7.64431       23.24744       23.33527        0.417
       12.94492        9.86844       27.11345       -0.834
       12.52198       10.70919       26.93882        0.417
       12.64228        9.62467       27.98822        0.417
       14.18572        1.40367       14.15739       -0.834
       14.34076        2.11960       14.77353        0.417
       13.32724        1.05815       14.40205        0.417
       16.73281       28.68024       15.30438       -0.834
       16.69308       27.79896       15.67586        0.417
       16.89667       29.25022       16.05572        0.417
       19.03901       21.85027       21.21002       -0.834
       18.26281       21.87385       20.65038        0.417
       18.69211       21.76464       22.09802        0.417
       19.44642       19.96366       25.36854       -0.834
       20.22508       20.47227       25.14217        0.417
       19.69588       19.05505       25.19994        0.417
       24.30760       12.90995       12.69939       -0.834
       23.86613       12.90656       11.85008        0.417
       23.63976       13.21039       13.31580        0.417
       15.19951       11.26637       18.89990       -0.834
       14.28743       11.50129       18.72917        0.417
       15.22477       11.06668       19.83570        0.417
        4.63586        7.86900       19.80938       -0.834
        5.43239        7.37381       19.61819        0.417
        3.94957        7.20470       19.87219        0.417
       21.58414       14.12691       10.78858       -0.834
       21.35450       13.21184       10.62688        0.417
       21.07438       14.36927       11.56165        0.417
       28.25796        8.46229       20.35923       -0.834
       28.30964        9.41591       20.42370        0.417
       27.92816        8.29902       19.47559        0.417
       27.53720       19.72972       21.12515       -0.834
       26.90413       19.02025       21.01507        0.417
       27.42240       20.01532       22.03151        0.417
       19.30641       26.30829       14.37146       -0.834
       18.62064       26.33017       13.70401        0.417