%Nproc=32
%Mem=120Gb
%chk=temp.chk
#p cam-b3lyp/6-31+G(d,p) nosymm charge Freq 

Calculation for S0 with freq for abs spect

0  1
 C         15.67001       17.52951       16.07990
 C         17.29263       15.73382       15.50664
 C         17.69386       15.59301       16.75284
 C         17.02629       16.30618       17.76575
 N         16.02668       17.20797       17.42578
 H         17.67125       15.12497       14.63812
 H         18.45954       14.96849       17.03646
 O         17.17321       16.07324       18.97937
 O         14.84122       18.33227       15.79511
 N         16.36929       16.69331       15.18925
 H         15.95504       16.77448       14.32139
 H         15.50575       17.72944       18.15479
 O         14.91587       15.73717       19.48475
 H         15.12918       15.52655       18.57570
 H         14.00859       15.45111       19.59083
 O         20.38534       13.88838       16.32431
 H         20.12235       12.96815       16.30888
 H         19.73529       14.31441       16.88302
 O         16.22423       17.29612       21.12331
 H         15.59367       16.82339       20.58002
 H         17.06650       17.15565       20.69079
 O         11.71665       18.04340       17.79106
 H         12.41100       18.45569       18.30499
 H         11.49568       17.25012       18.27902
 O         14.94511       12.41071       17.35379
 H         14.22017       12.89354       16.95686
 H         14.55803       11.57939       17.62823
 O         16.69366       11.73142       14.95398
 H         15.93332       11.70430       14.37314
 H         16.32266       11.83461       15.83030
 O         18.55609       21.13482       17.54650
 H         17.84288       20.51375       17.39871
 H         19.33879       20.67982       17.23572
 O         19.43326       18.33194       14.67634
 H         19.68168       18.07456       15.56419
 H         20.23812       18.24146       14.16619
 O         12.85962       14.89944       14.04976
 H         12.52246       15.31803       13.25772
 H         12.31440       15.24699       14.75557
 O         18.29128       20.89731       14.40472
 H         19.10728       21.29650       14.10302
 H         18.50394       19.97059       14.51515
 O         14.14188       19.74846       15.13997
 H         13.23317       19.76287       14.83955
 H         14.65236       20.00798       14.37297
 O         20.88803       17.36076       16.95369
 H         21.16815       16.52939       16.57081
 H         21.40692       17.44343       17.75378
 O         15.18937       13.68772       12.79980
 H         14.40624       13.98082       13.26567
 H         15.04123       13.95159       11.89169
 O         18.66883       16.93984       20.36491
 H         18.79193       16.02200       20.60709
 H         19.41842       17.39261       20.75136
 O         13.87499       18.97170       19.47020
 H         13.96741       19.92426       19.45236
 H         14.73952       18.64206       19.22493
 O         16.16420       20.56469       20.12128
 H         15.50578       21.24486       19.97955
 H         16.20979       20.09728       19.28721
 O         18.72298       16.17290       13.30131
 H         18.10230       16.61004       12.71830
 H         18.95700       16.84014       13.94648
 O         16.05961       19.85769       13.29926
 H         16.13208       20.44250       12.54495
 H         16.81547       20.07499       13.84487
 
        2.49502       16.79477       15.22231       -0.834
        1.97309       16.05115       15.52375        0.417
        2.22183       17.52208       15.78144        0.417
       20.76026       28.47701       10.72917       -0.834
       21.05644       29.22997       10.21774        0.417
       19.81064       28.58344       10.78508        0.417
       27.70990       25.30464       11.97318       -0.834
       27.88123       24.72734       11.22913        0.417
       28.31968       26.03327       11.85699        0.417
       13.26632       21.97233       16.56386       -0.834
       13.46338       21.14328       16.12787        0.417
       13.20553       21.74680       17.49212        0.417
        9.10983       23.51335        6.58557       -0.834
        8.50568       23.90072        7.21896        0.417
        8.64821       23.56849        5.74886        0.417
       11.25438       17.95678       30.71049       -0.834
       11.14204       18.62088       30.03036        0.417
       11.56473       18.44463       31.47333        0.417
       29.00392       15.86834       19.91060       -0.834
       29.73645       15.76350       19.30344        0.417
       28.95320       16.81166       20.06487        0.417
        7.51765       10.30321       13.43818       -0.834
        7.11407        9.64042       13.99859        0.417
        8.18200        9.82541       12.94162        0.417
       12.77697        6.73283       25.80573       -0.834
       12.90085        5.85318       26.16224        0.417
       11.98961        6.66424       25.26574        0.417
       27.96200       20.50689       15.61057       -0.834
       27.19798       20.33085       15.06148        0.417
       28.45025       19.68358       15.61353        0.417
       14.33600       13.11770       27.46921       -0.834
       13.81067       13.43440       26.73440        0.417
       14.00213       13.59741       28.22727        0.417
       30.81699       18.09741       22.36379       -0.834
       31.10434       17.44222       22.99969        0.417
       29.86120       18.07342       22.40972        0.417
       18.67523       19.79851       11.23355       -0.834
       19.01099       20.15288       12.05691        0.417
       19.40432       19.29241       10.87505        0.417
        3.79693       11.21993       19.68432       -0.834
        4.05680       11.29518       18.76615        0.417
        2.85190       11.37206       19.67951        0.417
        6.46554       23.11278       14.71268       -0.834
        6.66418       23.18207       15.64647        0.417
        7.25332       23.43558       14.27514        0.417
        5.19372       25.97900       17.80085       -0.834
        5.14845       26.88431       17.49328        0.417
        4.76081       25.47061       17.11502        0.417
       11.46587       12.56542       13.55481       -0.834
       11.51392       12.01461       14.33617        0.417
       11.86290       13.39472       13.82101        0.417
       19.18894       17.71427       24.35915       -0.834
       19.29653       17.96529       23.44174        0.417
       20.01016       17.97377       24.77686        0.417
       26.43640       25.53906       22.16659       -0.834
       26.96694       25.48127       22.96121        0.417
       26.97638       26.03750       21.55324        0.417
       23.17172       27.98557       23.89507       -0.834
       23.43646       28.51877       23.14551        0.417
       23.12541       27.09365       23.55072        0.417
       12.30342       12.93797       10.33021       -0.834
       12.03980       12.26403       10.95675        0.417
       11.54574       13.03968        9.75418        0.417
        9.15606       12.43913       29.00032       -0.834
        9.55528       13.29484       29.15719        0.417
        9.82556       11.80935       29.26749        0.417
       21.66462        8.23955       14.69074       -0.834
       21.27050        8.66757       13.93067        0.417
       22.16385        7.51015       14.32335        0.417
       23.93940       10.69459       12.44463       -0.834
       23.64889       11.25475       13.16439        0.417
       24.16706       11.30437       11.74280        0.417
       16.05228       17.54033       32.44466       -0.834
       15.91661       18.44125       32.73820        0.417
       15.61195       17.49558       31.59593        0.417
       18.36633        9.99808       21.95479       -0.834
       18.61472        9.49063       22.72746        0.417
       19.02805        9.77687       21.29949        0.417
       21.70319       17.89986       25.68635       -0.834
       21.86170       18.78114       25.34802        0.417
       21.57784       18.02298       26.62728        0.417
       16.06646        6.24639       26.11597       -0.834
       15.79992        5.46022       25.63941        0.417
       15.37404        6.88236       25.93613        0.417
       15.99877        6.64523       12.13557       -0.834
       15.97742        7.51302       12.53896        0.417
       16.92982        6.46158       12.01049        0.417
       17.45054       24.72290       12.82542       -0.834
       17.29884       25.55615       12.37943        0.417
       16.69037       24.18733       12.59843        0.417
       16.81839       18.54865       25.64362       -0.834
       17.26205       19.05578       26.32349        0.417
       17.52364       18.08759       25.18945        0.417
       27.61834       13.92653        7.43630       -0.834
       28.13976       13.51189        8.12363        0.417
       28.26370       14.25096        6.80822        0.417
        7.29846       16.77318       28.31952       -0.834
        7.88948       16.03610       28.16577        0.417
        6.65919       16.44080       28.94967        0.417
       16.55251       24.01570       28.98816       -0.834
       17.45988       23.72225       29.07063        0.417
       16.58037       24.69534       28.31470        0.417
       12.49835       22.99924       13.02261       -0.834
       12.39637       22.45959       12.23864        0.417
       11.66725       22.90564       13.48817        0.417
        4.78359       19.99763       25.05076       -0.834
        4.80653       19.28153       24.41600        0.417
        4.60676       19.57001       25.88868        0.417
       12.43632       17.85769       21.72047       -0.834
       12.10738       18.48299       22.36625        0.417
       12.86749       18.39959       21.05967        0.417
        8.33104       17.38428       16.31660       -0.834
        8.39157       17.99279       17.05299        0.417
        7.52213       17.63030       15.86785        0.417
       12.62099        4.18538       15.48979       -0.834
       12.83083        5.08665       15.73457        0.417
       13.47215        3.75708       15.39863        0.417
       23.53819        9.62961        8.27680       -0.834
       23.15826        9.50208        9.14606        0.417
       23.23941       10.49880        8.00947        0.417
       18.95333        4.99719        7.35048       -0.834
       19.37473        4.14295        7.44494        0.417
       19.04369        5.40588        8.21132        0.417
       10.49369       19.80067       28.77856       -0.834
        9.86218       19.98553       28.08339        0.417
       11.24588       20.35595       28.57336        0.417
        8.02500        4.88343       22.42530       -0.834
        8.66080        5.57640       22.24706        0.417
        7.34179        5.00941       21.76683        0.417
        9.58184        8.13153       14.97510       -0.834
        9.74398        8.58723       14.14909        0.417
        9.42218        7.22273       14.72049        0.417
       23.70569       16.43132       21.95750       -0.834
       23.31384       15.57397       22.12377        0.417
       24.61812       16.24012       21.74037        0.417
       10.47768       13.60849       19.24748       -0.834
       10.72827       13.68668       20.16798        0.417
        9.95949       12.80469       19.20726        0.417
        4.92172       10.66689       21.92628       -0.834
        4.76838        9.72220       21.90953        0.417
        4.47995       10.99565       21.14334        0.417
        6.61648       17.25777        6.33781       -0.834
        6.95299       17.01153        5.47621        0.417
        7.04057       18.09383        6.53112        0.417
       14.37733       17.79709       28.43689       -0.834
       13.56938       17.28555       28.47898        0.417
       15.05063       17.16252       28.19151        0.417
       22.01136       28.31443       19.11359       -0.834
       21.47635       28.38324       18.32285        0.417
       22.66904       29.00345       19.01907        0.417
       20.92597        7.00410       17.04938       -0.834
       21.21106        7.34363       16.20105        0.417
       20.27334        7.63491       17.35332        0.417
       22.15688       22.53607       11.41614       -0.834
       22.06764       22.82138       10.50682        0.417
       22.32452       23.34171       11.90509        0.417
       21.94887        9.56278       25.20045       -0.834
       21.79734       10.00980       26.03318        0.417
       21.78222        8.63944       25.38993        0.417
       28.75093       17.22737       25.41374       -0.834
       28.64674       17.36573       24.47234        0.417
       29.66647       16.96839       25.51837        0.417
        9.86691       23.07293       23.65506       -0.834
       10.02839       22.31313       24.21439        0.417
       10.71201       23.51992       23.60757        0.417
        6.70248       15.66200       11.45626       -0.834
        7.59100       15.50609       11.77633        0.417
        6.81542       15.87940       10.53094        0.417
        5.11099       14.87978       23.63354       -0.834
        4.72588       14.05388       23.92647        0.417
        5.31153       14.73636       22.70864        0.417
       18.91209       13.62810       12.49543       -0.834
       18.23889       13.30175       13.09253        0.417
       18.96941       14.56419       12.68697        0.417
       27.37485       16.48304       27.81761       -0.834
       26.54204       16.72876       28.22046        0.417
       27.30193       16.78526       26.91230        0.417
       11.45702       23.15213       27.08671       -0.834
       11.19521       24.07282       27.08875        0.417
       11.34207       22.87195       26.17868        0.417
       18.06302       29.16316       11.01651       -0.834
       17.78792       29.38146       10.12606        0.417
       17.69950       29.86342       11.55847        0.417
       25.90828       14.89350       11.21478       -0.834
       25.28765       15.05050       11.92640        0.417
       25.64629       14.04821       10.84997        0.417
        8.58650       14.62205       14.85635       -0.834
        8.62149       13.70203       15.11823        0.417
        7.75105       14.93793       15.20056        0.417
       23.73056       15.93604        5.52808       -0.834
       23.92283       15.83420        4.59594        0.417
       22.77869       16.02875        5.56805        0.417
       18.60269       15.78221       28.55795       -0.834
       17.79171       15.82155       28.05100        0.417
       18.75221       16.68402       28.84187        0.417
        5.97202       16.60588        8.97637       -0.834
        6.32095       16.85362        8.12016        0.417
        5.66103       17.42782        9.35576        0.417
       23.03145       23.22761        8.65505       -0.834
       22.83868       23.97938        8.09477        0.417
       23.66081       23.56032        9.29493        0.417
       27.01594       23.61833       19.08659       -0.834
       26.67510       23.27657       18.26000        0.417
       26.26418       23.60734       19.67902        0.417
       20.72311       20.83136       13.08256       -0.834
       20.98347       21.42536       12.37856        0.417
       21.40473       20.15942       13.09400        0.417
       24.67899        6.37102       11.99125       -0.834
       25.10952        7.14218       12.36027        0.417
       24.07446        6.08328       12.67534        0.417
        4.47507       20.48127       11.95156       -0.834
        4.44220       21.41817       12.14483        0.417
        3.74399       20.10874       12.44449        0.417
        6.60100        6.42669       12.12175       -0.834
        7.43390        6.25775       11.68133        0.417
        5.97770        6.57005       11.40959        0.417
       10.47161       19.99689       16.34777       -0.834
       10.79102       19.19511       16.76172        0.417
       10.73836       19.91685       15.43198        0.417
       24.05156       15.11479       13.03761       -0.834
       23.45079       14.46880       12.66612        0.417
       24.47855       14.65692       13.76167        0.417
       13.51886       22.39350        4.35482       -0.834
       13.21902       21.48937        4.26066        0.417
       12.98725       22.88877        3.73166        0.417
       19.76109        4.93995       21.34733       -0.834
       19.69229        4.35393       22.10104        0.417
       20.70257        5.04837       21.21279        0.417
       12.84610       30.88216       21.84391       -0.834
       13.56276       30.37872       21.45768        0.417
       12.08095       30.31308       21.76069        0.417
       23.46746        8.73097        5.70574       -0.834
       23.65868        8.98704        6.60802        0.417
       24.04637        9.27675        5.17356        0.417
       19.12324       22.81876       28.62022       -0.834
       19.52861       23.65531       28.39198        0.417
       19.77921       22.16231       28.38567        0.417
       30.59125       17.80238       13.13080       -0.834
       29.93220       18.21811       12.57488        0.417
       30.09914       17.17023       13.65467        0.417
       28.90161       19.48378       11.70287       -0.834
       28.63460       20.39127       11.84916        0.417
       28.33688       19.17898       10.99264        0.417
        4.95493       14.71083       26.94716       -0.834
        4.80776       14.89665       27.87454        0.417
        5.54688       15.40380       26.65454        0.417
        7.40528       19.68108        8.09691       -0.834
        6.60516       19.92689        7.63258        0.417
        7.23584       19.91760        9.00882        0.417
       22.31378       30.55264       15.64612       -0.834
       22.02443       30.80151       14.76830        0.417
       21.80451       29.76915       15.85355        0.417
       28.47415       21.18019       23.41015       -0.834
       27.68748       21.11534       23.95160        0.417
       28.27615       21.87418       22.78134        0.417
       25.90307        8.47190       16.53257       -0.834
       25.99217        8.96784       17.34641        0.417
       25.21091        8.92430       16.05040        0.417
       10.94963       28.87013       22.79961       -0.834
       11.60104       28.18727       22.63964        0.417
       10.77708       28.82165       23.73988        0.417
       23.14521       19.95146       30.32549       -0.834
       23.65552       19.15982       30.15484        0.417
       22.43662       19.92345       29.68256        0.417
       16.28264        9.28114        4.85157       -0.834
       15.38043        9.03902        5.06043        0.417
       16.77444        9.08524        5.64906        0.417
       20.14475       28.13232       21.04181       -0.834
       19.62766       28.87797       20.73710        0.417
       20.92554       28.13945       20.48814        0.417
       10.72114       24.03477        9.00763       -0.834
       10.07218       24.33884        9.64216        0.417
       10.21095       23.82013        8.22668        0.417
       10.57415        7.54075       21.99466       -0.834
       10.10173        8.21472       22.48336        0.417
       11.12473        8.02944       21.38289        0.417
       23.05254        5.92939       14.15802       -0.834
       23.75389        5.75342       14.78523        0.417
       22.51972        5.13422       14.16448        0.417
       26.59531       24.59453       14.19009       -0.834
       27.20378       24.15216       14.78195        0.417
       27.13929       24.87992       13.45602        0.417
       18.64900       30.19560       20.10809       -0.834
       18.47899       30.75817       19.35255        0.417
       18.04859       30.51222       20.78299        0.417
        6.36151        5.81330       20.35710       -0.834
        5.96303        4.96988       20.14242        0.417
        6.74910        6.11195       19.53440        0.417
       14.79657       26.60403       26.47702       -0.834
       15.35781       27.37525       26.39662        0.417
       13.90531       26.94954       26.42685        0.417
       19.25937        9.16215       17.26312       -0.834
       19.12432        9.63319       18.08538        0.417
       18.37587        8.98178       16.94197        0.417
       10.29399       17.38403        7.12717       -0.834
       10.66044       18.14841        7.57176        0.417
        9.90851       17.73518        6.32447        0.417
       12.11275        5.41019        8.79201       -0.834
       11.20704        5.68042        8.64071        0.417
       12.04426        4.51233        9.11665        0.417
       21.34193       14.70688       29.03253       -0.834
       20.65001       15.11060       28.50861        0.417
       21.10366       14.90485       29.93821        0.417
       24.26470       16.86479       16.71549       -0.834
       24.01075       16.26582       16.01336        0.417
       23.84002       16.51184       17.49735        0.417
       22.80566       18.90440        4.60377       -0.834
       22.22754       19.64008        4.40186        0.417
       22.95429       18.47739        3.76009        0.417
       16.76903       17.25374        5.99274       -0.834
       16.30765       16.44209        6.20388        0.417
       17.18791       17.51221        6.81369        0.417
       25.50565        7.96753       21.66809       -0.834
       25.33823        7.83190       22.60073        0.417
       26.41286        8.27026       21.62866        0.417
        9.89913       11.76661       11.16457       -0.834
       10.24763       11.84846       12.05231        0.417
        9.60497       10.85768       11.10509        0.417
       11.98498       25.93978        6.26424       -0.834
       12.92635       25.78126        6.19406        0.417
       11.63489       25.13799        6.65259        0.417
       12.98195        6.09936       11.55178       -0.834
       12.97672        5.25270       11.99830        0.417
       12.68474        5.90385       10.66314        0.417
       13.12923        5.39745       19.51763       -0.834
       13.49563        5.40361       20.40190        0.417
       12.27557        5.82081       19.60861        0.417
       24.34771       12.45832       10.39023       -0.834
       24.78981       12.13098        9.60688        0.417
       23.41538       12.40152       10.18103        0.417
        3.57678       21.93784       19.84144       -0.834
        4.48612       21.99576       19.54821        0.417
        3.52455       22.54186       20.58215        0.417
       27.94826       17.72658        9.81392       -0.834
       28.74797       17.22880        9.98399        0.417
       27.48215       17.21367        9.15370        0.417
       14.14586       19.56036       30.44651       -0.834
       14.26936       19.06574       29.63637        0.417
       14.16490       20.47746       30.17304        0.417
       16.79542       19.11563        3.57912       -0.834
       16.18984       18.56927        3.07814        0.417
       16.72459       18.79134        4.47692        0.417
        9.25937       14.63178       12.24503       -0.834
        9.13045       14.80420       13.17771        0.417
        9.89934       13.92046       12.21869        0.417
       27.72434       13.96380       18.42755       -0.834
       27.61221       14.41667       19.26335        0.417
       28.67040       13.95935       18.28203        0.417
       18.06749       23.79438       25.43622       -0.834
       18.35346       22.96291       25.81453        0.417
       17.87218       23.58763       24.52225        0.417
       23.55654       26.46575        7.65665       -0.834
       24.09144       25.88687        7.11350        0.417
       24.08469       26.61473        8.44093        0.417
       17.39372       20.46690       27.61491       -0.834
       18.01667       21.15115       27.85979        0.417
       16.53400       20.86383       27.75480        0.417
        4.99028       13.79483       12.12577       -0.834
        5.41920       12.94846       12.25188        0.417
        5.66823       14.35308       11.74501        0.417
       21.68626       14.09814       19.76415       -0.834
       22.32872       13.77006       20.39330        0.417
       22.19200       14.26238       18.96823        0.417
       15.34599       17.52524        1.99608       -0.834
       14.39011       17.56370        2.02827        0.417
       15.54125       16.62591        1.73282        0.417
       17.49392        7.59119        8.96062       -0.834
       17.45183        8.37305        8.41001        0.417
       16.64341        7.16827        8.84228        0.417
       20.86749       21.33251       27.17725       -0.834
       20.56342       21.39757       26.27197        0.417
       21.77597       21.63249       27.14742        0.417
       17.51464        2.95799       16.70373       -0.834
       18.13414        2.33679       16.32091        0.417
       18.01895        3.76443       16.81129        0.417
       20.94560       15.50921       24.83021       -0.834
       21.42565       16.27220       25.15213        0.417
       20.15365       15.87330       24.43465        0.417
       19.68677       26.38482       15.48335       -0.834
       18.74697       26.26015       15.61556        0.417
       19.93942       25.68466       14.88155        0.417
        9.68851       16.08464        9.37344       -0.834
        9.30573       16.67513       10.02231        0.417
        9.62212       16.56160        8.54620        0.417
       18.71448        6.43913       12.58726       -0.834
       18.94732        6.10178       13.45225        0.417
       19.21653        7.24970       12.50267        0.417
       11.02329       24.83185       18.39606       -0.834
       11.06862       24.16217       19.07849        0.417
       10.96099       25.65843       18.87471        0.417
       24.51043       15.41536       25.14964       -0.834
       25.31751       15.01523       24.82598        0.417
       24.51640       16.29904       24.78180        0.417
       26.15568       10.83159       14.68049       -0.834
       26.79391       11.15529       14.04479        0.417
       26.59489       10.91760       15.52661        0.417
       12.85650        9.19072       14.70052       -0.834
       12.44795        9.98598       15.04238        0.417
       12.73247        9.24547       13.75297        0.417
       30.68816       18.49025       16.98379       -0.834
       31.06053       18.48595       17.86558        0.417
       30.97815       19.32005       16.60487        0.417
       30.23285       13.99616       17.47718       -0.834
       30.50460       14.74002       16.93954        0.417
       31.04952       13.54792       17.69707        0.417
       18.32929        9.60150        7.00697       -0.834
       18.38027       10.53272        6.79141        0.417
       19.22766        9.35710        7.22929        0.417
       16.82580        6.76789       15.90466       -0.834
       16.34644        7.19583       15.19521        0.417
       16.18899        6.69661       16.61573        0.417
       20.24347       20.46849        4.78209       -0.834
       20.06404       19.56364        4.52656        0.417
       20.33358       20.93858        3.95316        0.417
        3.07894       17.04710       19.02895       -0.834
        3.54910       17.00936       18.19602        0.417
        2.29981       17.57050       18.84123        0.417
       23.31458       28.68866       11.61271       -0.834
       22.37006       28.55018       11.54237        0.417
       23.43967       29.60996       11.38513        0.417
       14.91432       21.82012       26.81656       -0.834
       15.30425       22.55493       26.34302        0.417
       14.00602       21.79551       26.51554        0.417
       28.45563       10.46963       21.49298       -0.834
       28.74115       11.23981       21.00154        0.417
       27.64157       10.74298       21.91585        0.417
       18.41819        9.37105       25.54731       -0.834
       19.30212        9.42877       25.91004        0.417
       18.29484       10.19891       25.08290        0.417
       26.92951       16.85037        7.65279       -0.834
       27.15121       15.92682        7.53386        0.417
       26.03498       16.84052        7.99330        0.417
        6.90533       15.36277       18.19932       -0.834
        5.99683       15.19982       17.94573        0.417
        7.27834       15.84314       17.46017        0.417
       24.02247       18.58885       10.50315       -0.834
       24.13336       17.94475        9.80382        0.417
       23.17784       18.99989       10.31912        0.417
       17.89730       25.97992       23.11428       -0.834
       17.95791       25.55022       22.26110        0.417
       18.76888       26.34774       23.26019        0.417
       23.99802       24.74843       13.01799       -0.834
       24.85070       24.57229       13.41565        0.417
       23.57089       25.35360       13.62426        0.417
       13.87515       24.75267       18.56418       -0.834
       13.70942       25.46792       19.17833        0.417
       13.08634       24.71307       18.02340        0.417
       24.95573       18.15689       19.91590       -0.834
       25.40678       17.31761       20.00748        0.417
       25.39633       18.58744       19.18328        0.417