%Nproc=32
%Mem=120Gb
%chk=temp.chk
#p cam-b3lyp/6-31+G(d,p) nosymm charge Freq 

Calculation for S0 with freq for abs spect

0  1
 C         15.67001       17.52951       16.07990
 C         17.29263       15.73382       15.50664
 C         17.69386       15.59301       16.75284
 C         17.02629       16.30618       17.76575
 N         16.02668       17.20797       17.42578
 H         17.67125       15.12497       14.63812
 H         18.45954       14.96849       17.03646
 O         17.17321       16.07324       18.97937
 O         14.84122       18.33227       15.79511
 N         16.36929       16.69331       15.18925
 H         15.95504       16.77448       14.32139
 H         15.50575       17.72944       18.15479
 O         18.47010       17.77596       20.38403
 H         18.51573       17.15581       19.65633
 H         17.72249       18.33614       20.17544
 O         20.64924       15.04039       15.39039
 H         20.56518       14.56401       16.21636
 H         21.43856       15.57094       15.49859
 O         13.20303       17.33729       20.23976
 H         13.99455       17.80032       20.51423
 H         13.29603       17.24421       19.29165
 O         17.06542       14.75871       20.74562
 H         17.94103       14.92886       21.09286
 H         16.47772       14.93241       21.48092
 O         12.15858       15.05053       15.36740
 H         12.96460       14.58476       15.14463
 H         12.40314       15.97578       15.34893
 O         14.69920       13.96774       15.08053
 H         15.23414       13.23263       15.37998
 H         15.07060       14.20428       14.23062
 O         18.36012       12.64796       19.43743
 H         17.64551       13.15156       19.82726
 H         18.03183       11.74934       19.40726
 O         17.67094       19.63005       13.43432
 H         16.96623       20.18102       13.09367
 H         17.96933       19.12649       12.67694
 O         15.55737       14.92810       12.73430
 H         14.89153       15.58737       12.92988
 H         15.20674       14.44812       11.98403
 O         14.11980       19.57134       18.04041
 H         13.66222       18.85819       17.59512
 H         13.45656       20.25349       18.14534
 O         16.85063       19.49348       18.59160
 H         15.95610       19.29036       18.86507
 H         16.97138       20.41278       18.82937
 O         20.65762       14.64616       19.36140
 H         20.41205       13.79319       19.71969
 H         19.85420       14.97864       18.96115
 O         11.73871       14.66413       18.45811
 H         11.59655       14.92635       17.54857
 H         12.52313       15.14279       18.72607
 O         19.17225       13.01166       16.73753
 H         19.80980       12.32977       16.94917
 H         18.89379       13.35206       17.58771
 O         18.87399       19.98743       16.38866
 H         18.23432       19.65731       17.01959
 H         18.39984       20.01365       15.55757
 O         18.65253       15.27668       12.55194
 H         18.99155       14.71691       13.25048
 H         17.71659       15.07878       12.51876
 O         19.29440       12.80640       13.65184
 H         18.65595       12.09448       13.60969
 H         19.43179       12.95043       14.58811
 O         13.87270       19.67283       14.41618
 H         14.54806       20.22371       14.81197
 H         13.33506       20.28015       13.90790
 O         14.16891       17.42728       12.82303
 H         13.97374       18.14029       13.43111
 H         14.82822       17.79006       12.23148
 O         21.10425       18.61171       17.39426
 H         21.61915       18.09739       16.77250
 H         20.35044       18.91522       16.88841
 
       21.90620        5.84615       17.50303       -0.834
       22.43501        5.12832       17.15473        0.417
       21.25410        6.01566       16.82312        0.417
       15.61162       21.88857       23.60713       -0.834
       16.33902       21.26710       23.63695        0.417
       16.02490       22.74656       23.70342        0.417
       26.07189        9.32947        9.73204       -0.834
       25.98829        8.37624        9.70764        0.417
       25.24080        9.63401       10.09644        0.417
       19.31281       14.00634       22.57821       -0.834
       19.69932       14.76538       23.01490        0.417
       18.53297       13.80355       23.09488        0.417
        8.56166       28.86630       20.61415       -0.834
        7.84828       29.32232       21.06067        0.417
        8.89521       28.24788       21.26417        0.417
       21.98254       18.30907       13.12260       -0.834
       21.67224       17.70176       12.45094        0.417
       21.37553       19.04778       13.07710        0.417
       27.40247       15.94796       17.64299       -0.834
       27.21250       15.65445       16.75192        0.417
       27.87263       15.21572       18.04174        0.417
        9.83831        7.67788       18.84406       -0.834
       10.28019        7.21784       19.55774        0.417
        9.92528        7.09302       18.09133        0.417
        9.84195       12.75591        4.56754       -0.834
        8.94781       13.00770        4.33655        0.417
       10.15312       12.25619        3.81276        0.417
       10.84499       20.51368        7.08667       -0.834
       10.60067       21.17956        6.44391        0.417
       10.05829       20.39343        7.61852        0.417
        8.88133       24.63073       26.32964       -0.834
        8.27677       23.89031       26.27952        0.417
        9.57063       24.42082       25.69953        0.417
       16.71786       17.58579       23.02990       -0.834
       17.65618       17.41349       23.10800        0.417
       16.30580       16.73056       23.15241        0.417
       28.45805       21.37543       17.47739       -0.834
       27.53420       21.21787       17.28267        0.417
       28.90383       21.25589       16.63881        0.417
       17.98997       24.54166       17.20299       -0.834
       17.15061       24.14867       17.44229        0.417
       18.30689       24.94223       18.01252        0.417
        5.90903       21.26958       11.06837       -0.834
        6.86124       21.36268       11.03908        0.417
        5.67586       21.47197       11.97441        0.417
       17.47649        3.98309        9.73149       -0.834
       18.30378        4.06605        9.25721        0.417
       16.85638        4.50871        9.22611        0.417
       19.40444       27.56160       13.06981       -0.834
       20.21463       27.55181       12.56017        0.417
       19.50411       28.30481       13.66474        0.417
       29.21703       25.57011       17.05012       -0.834
       28.28205       25.36666       17.02450        0.417
       29.61504       24.81545       17.48406        0.417
        1.28709       12.58130       17.76967       -0.834
        2.18580       12.84064       17.97289        0.417
        1.27668       12.47714       16.81821        0.417
       18.28938        6.65950       13.72478       -0.834
       17.58146        7.23347       14.01743        0.417
       19.06906        6.99552       14.16685        0.417
       14.49028       23.77822        8.20169       -0.834
       14.41687       22.82586        8.13958        0.417
       13.64661       24.10486        7.88904        0.417
       18.72954       24.43760        7.25370       -0.834
       18.29414       24.76179        6.46531        0.417
       18.02353       24.33124        7.89125        0.417
       14.38399       26.91743       23.48543       -0.834
       15.29537       26.67852       23.31652        0.417
       14.08294       26.27575       24.12873        0.417
       19.21225       16.80645        4.75683       -0.834
       18.47180       16.32023        4.39412        0.417
       19.84497       16.85017        4.03990        0.417
       26.19163       17.19399       22.35209       -0.834
       25.54295       16.63497       21.92438        0.417
       26.24925       17.96735       21.79100        0.417
       13.77927       16.20832        8.84229       -0.834
       13.79589       16.33969        9.79029        0.417
       13.30529       15.38540        8.72232        0.417
        4.66191       22.76532       17.76387       -0.834
        4.57046       23.71806       17.77678        0.417
        3.76263       22.43771       17.77723        0.417
       22.20288       22.62792       15.95636       -0.834
       21.54105       23.22086       15.60051        0.417
       21.76201       22.18270       16.68000        0.417
       10.66987       21.47340       14.50976       -0.834
       10.86288       20.96827       13.71994        0.417
       10.48212       22.35596       14.19029        0.417
       10.21448       13.22140       27.60962       -0.834
       10.67068       13.67419       26.90033        0.417
       10.41365       12.29554       27.47055        0.417
       22.57902       29.68388       17.59819       -0.834
       21.66750       29.72133       17.30845        0.417
       23.05740       29.34379       16.84206        0.417
       19.77782        4.35637       19.07987       -0.834
       20.39586        3.65879       19.29814        0.417
       20.32292        5.05593       18.71973        0.417
       20.44990       20.23961       24.79639       -0.834
       20.74214       20.15310       23.88901        0.417
       21.16722       19.87567       25.31528        0.417
       23.47356       28.76442       14.95585       -0.834
       22.84697       28.14587       15.33137        0.417
       23.85021       28.30034       14.20819        0.417
       23.43468       24.72282       21.55504       -0.834
       22.54410       25.01986       21.74178        0.417
       23.33862       24.13009       20.80961        0.417
        4.94384       12.24448       24.37732       -0.834
        4.67866       13.15566       24.25214        0.417
        5.65726       12.28748       25.01404        0.417
       23.06031       10.95383       19.10189       -0.834
       22.93529       10.69468       20.01482        0.417
       23.70839       10.33594       18.76362        0.417
        1.95303       17.18271       17.49790       -0.834
        1.66277       17.84576       16.87153        0.417
        1.15208       16.90630       17.94322        0.417
        6.99892       22.87051       25.81532       -0.834
        7.37369       22.03414       25.53915        0.417
        6.55183       22.67306       26.63834        0.417
       23.41161       10.54978        7.67595       -0.834
       24.20133       10.01104        7.62767        0.417
       22.71980        9.93924        7.93064        0.417
       25.89871       20.18623       23.71188       -0.834
       25.41494       19.40999       23.99411        0.417
       25.63726       20.86952       24.32913        0.417
        7.17644       19.73731        6.43029       -0.834
        6.86839       19.88106        7.32509        0.417
        7.79435       19.00991        6.50315        0.417
        9.72913       18.91001       14.08465       -0.834
        9.69917       17.97321       14.27889        0.417
       10.23888       18.97142       13.27681        0.417
        8.76004       24.53237       20.25904       -0.834
        8.27439       24.97867       20.95272        0.417
        9.14935       23.77148       20.68998        0.417
       22.72861       12.61654       23.38351       -0.834
       22.26720       13.42847       23.17348        0.417
       22.04247       12.02229       23.68735        0.417
       13.72809        6.28032        6.73069       -0.834
       13.96064        5.64545        6.05313        0.417
       12.87474        5.98788        7.05085        0.417
       18.47066       25.94820       25.10188       -0.834
       18.06759       25.46935       24.37768        0.417
       19.06886       26.56419       24.67884        0.417
        9.85690       16.01740       14.16131       -0.834
        9.58378       15.62566       14.99087        0.417
       10.66656       15.55979       13.93487        0.417
       19.07268       30.32955       14.18270       -0.834
       18.83223       31.24301       14.02776        0.417
       19.99667       30.36329       14.43033        0.417
        9.12777       13.49599       10.83906       -0.834
        9.61727       12.85649       10.32169        0.417
        9.04265       13.09156       11.70243        0.417
       13.93641       13.50598       10.99198       -0.834
       14.06481       12.94165       10.22956        0.417
       13.31402       13.02936       11.54124        0.417
       20.29684       21.76779        8.10606       -0.834
       21.22145       21.76137        8.35362        0.417
       19.95164       22.57461        8.48830        0.417
       18.41384        7.96767       27.35185       -0.834
       18.36159        8.70149       26.73948        0.417
       17.58711        7.49928       27.23624        0.417
       11.53518       26.05910       21.54800       -0.834
       10.69999       26.02409       21.08168        0.417
       11.65864       26.98660       21.74985        0.417
       26.93726       11.58138       15.53808       -0.834
       26.08420       11.21850       15.29966        0.417
       27.51796       10.82162       15.58021        0.417
        4.63021       21.50081       20.14702       -0.834
        3.77951       21.08844       19.99713        0.417
        4.80577       21.98824       19.34215        0.417
       25.54066        8.76940       15.52228       -0.834
       24.91257        8.33494       14.94523        0.417
       25.01356        9.08547       16.25611        0.417
        3.21451       11.98973       10.04428       -0.834
        2.93636       11.10701       10.28848        0.417
        4.15414       12.00420       10.22616        0.417
       12.80191       22.45175       15.95322       -0.834
       12.07990       22.16009       15.39656        0.417
       12.57151       22.13960       16.82827        0.417
       21.27339        7.26482       27.93194       -0.834
       20.38766        7.09921       27.60899        0.417
       21.30542        6.82441       28.78121        0.417
       21.66558       27.70973       11.56953       -0.834
       21.53241       27.01241       10.92747        0.417
       22.41782       27.42016       12.08579        0.417
       16.28973       26.45113        5.58036       -0.834
       15.40239       26.13648        5.75315        0.417
       16.35416       26.47522        4.62564        0.417
       13.34320        8.58975       26.81312       -0.834
       13.45260        7.66494       26.59177        0.417
       14.18543        8.98964       26.59640        0.417
       10.32206       25.09989       23.92798       -0.834
        9.56405       24.84165       23.40360        0.417
       10.99599       25.31831       23.28428        0.417
       18.18728       13.35998       10.28034       -0.834
       17.97246       14.10993        9.72567        0.417
       18.30822       13.73386       11.15316        0.417
       15.84068       28.32684       25.57738       -0.834
       16.07874       29.24133       25.42482        0.417
       15.22794       28.11754       24.87242        0.417
       18.56195        6.95119       11.09226       -0.834
       17.69649        7.15011       10.73498        0.417
       18.41506        6.84553       12.03220        0.417
       16.46823       14.10084        6.29216       -0.834
       17.26941       14.47527        6.65840        0.417
       15.86067       14.83864        6.23970        0.417
       13.89923       10.51498       17.67975       -0.834
       13.87802        9.62535       17.32712        0.417
       13.24020       10.98968       17.17323        0.417
        8.29516        9.60511       23.18996       -0.834
        7.47808        9.87942       22.77359        0.417
        8.94422       10.23958       22.88598        0.417
        7.30854        7.07105       10.28486       -0.834
        7.52300        6.51861       11.03656        0.417
        7.72941        6.63895        9.54163        0.417
       11.37194       15.89892        3.95230       -0.834
       11.74362       15.12578        3.52762        0.417
       11.47141       15.72928        4.88908        0.417
        5.44550        7.02117       16.63344       -0.834
        6.14573        7.49763       17.07942        0.417
        5.00399        7.68443       16.10298        0.417
       23.80655       14.36025       16.15743       -0.834
       24.73479       14.58806       16.20948        0.417
       23.37446       15.17270       15.89390        0.417
       25.45452       23.85761       23.01090       -0.834
       24.87108       23.35103       23.57589        0.417
       24.86837       24.30760       22.40249        0.417
       28.83835       15.31016        9.50988       -0.834
       28.97405       16.02229        8.88482        0.417
       28.06362       15.57188       10.00738        0.417
       10.93448        9.85500       26.45446       -0.834
       11.31988       10.53142       25.89754        0.417
       11.67167        9.29424       26.69600        0.417
       17.95542       25.46632       13.53120       -0.834
       18.55108       26.15854       13.24440        0.417
       18.30490       25.18392       14.37640        0.417
       18.24327       20.62475        2.78842       -0.834
       17.42018       21.07625        2.97523        0.417
       18.87451       21.01718        3.39155        0.417
       13.11320        6.04811       26.05007       -0.834
       12.28010        5.96736       25.58569        0.417
       13.75246        5.63477       25.46978        0.417
        6.41699       16.28310       19.84470       -0.834
        7.27420       16.34810       19.42375        0.417
        5.90119       16.98540       19.44850        0.417
       17.35615       21.14042       11.00608       -0.834
       17.04105       21.08205       10.10411        0.417
       16.98508       21.95817       11.33747        0.417
       14.22775       15.87536       25.92699       -0.834
       13.87544       16.51978       25.31312        0.417
       15.16717       15.85832       25.74415        0.417
       13.69195        2.45536       16.25217       -0.834
       13.19226        2.06398       16.96866        0.417
       14.56782        2.07858       16.33657        0.417
       18.18863       15.31430        8.15376       -0.834
       17.53072       16.00929        8.17315        0.417
       18.98570       15.74687        7.84751        0.417
       30.34314       14.06936       16.52948       -0.834
       30.36353       15.02232       16.61705        0.417
       29.46461       13.82070       16.81687        0.417
       14.58198       11.20903       26.94613       -0.834
       13.92411       11.02317       27.61612        0.417
       14.88876       12.09260       27.14961        0.417
       15.82800       19.56143       31.95461       -0.834
       15.37830       19.19072       31.19529        0.417
       16.50697       20.12312       31.58080        0.417
       15.86828       18.54661       11.11760       -0.834
       15.78709       18.56389       10.16400        0.417
       16.80347       18.66880       11.28108        0.417
       23.67331       13.73495       29.56355       -0.834
       23.37457       13.72951       28.65417        0.417
       23.90869       12.82491       29.74427        0.417
       25.42627       17.48876       18.53751       -0.834
       25.92167       16.84585       18.03010        0.417
       24.95365       18.00019       17.88077        0.417
       10.59938       18.77801       30.24252       -0.834
       11.43967       19.00634       29.84502        0.417
        9.99443       18.71199       29.50367        0.417
       13.40130       20.36379        8.16355       -0.834
       13.19232       20.60207        9.06676        0.417
       12.54963       20.23336        7.74657        0.417
       18.81273       23.76781       21.09550       -0.834
       18.97704       24.35912       20.36094        0.417
       18.93576       22.89157       20.73039        0.417
       29.36557       10.59203       21.82182       -0.834
       30.04985       10.29942       22.42379        0.417
       29.71334       11.39585       21.43561        0.417
       23.19085       16.30118       29.82141       -0.834
       23.30465       15.35251       29.76395        0.417
       24.07862       16.65360       29.75904        0.417
       12.13432       24.90971        7.76072       -0.834
       12.29411       25.14628        6.84708        0.417
       11.80140       25.71253        8.16180        0.417
        7.81266       18.51886       11.59182       -0.834
        8.50422       17.90529       11.34380        0.417
        8.07233       19.34815       11.19048        0.417
       26.05879       26.88037       15.65534       -0.834
       25.84962       27.57782       16.27666        0.417
       26.43172       27.33546       14.90033        0.417
       28.58177       13.42677       21.10355       -0.834
       27.75705       13.91210       21.08051        0.417
       29.25731       14.09629       20.99577        0.417
       16.58912       18.29065        2.62995       -0.834
       17.09208       19.09651        2.74760        0.417
       15.91041       18.52177        1.99579        0.417
       15.31972       26.31542       17.91281       -0.834
       14.65626       25.70772       17.58609        0.417
       15.48090       26.91093       17.18095        0.417
       12.53437       21.18463        3.46945       -0.834
       12.50902       21.28530        2.51789        0.417
       12.96532       21.97955        3.78347        0.417
       24.79800       13.94303       11.31431       -0.834
       23.92726       14.31657       11.17828        0.417
       24.97661       13.45229       10.51213        0.417
       26.33093       21.92706       15.46368       -0.834
       25.62308       21.67683       16.05745        0.417
       26.15909       22.84626       15.25932        0.417
        3.60090       19.90249       13.49940       -0.834
        4.28943       20.20826       14.08986        0.417
        3.78013       18.96925       13.38464        0.417
        5.29880       13.92201       10.74302       -0.834
        4.49889       14.26150       11.14441        0.417
        5.60901       13.25375       11.35411        0.417
       23.94385       26.44241       17.97893       -0.834
       23.25893       26.09932       17.40499        0.417
       23.47884       26.71986       18.76824        0.417
       14.70708       12.55928        3.99373       -0.834
       14.81539       13.30604        4.58267        0.417
       15.57439       12.42799        3.61065        0.417
       15.38429       22.46770       13.24392       -0.834
       15.36159       22.69069       14.17451        0.417
       15.24655       23.30125       12.79398        0.417
       17.14968       29.53746       18.18888       -0.834
       16.42750       28.97464       17.90971        0.417
       17.17827       30.23418       17.53315        0.417
       12.25902        8.54803       23.98980       -0.834
       11.63342        8.47431       24.71051        0.417
       12.61106        7.66396       23.88622        0.417
       23.29656       16.77988        7.04887       -0.834
       23.47532       16.52338        6.14417        0.417
       23.13601       17.72244        7.00383        0.417
       21.58003       11.83343        3.22248       -0.834
       21.55432       12.32108        4.04573        0.417
       22.50798       11.80467        2.98945        0.417
       20.65478       21.58322       17.90401       -0.834
       20.11685       20.98234       17.38845        0.417
       20.32385       21.49489       18.79783        0.417
       20.57961       19.41230       21.62499       -0.834
       20.28541       18.55882       21.30681        0.417
       21.51819       19.30138       21.77666        0.417
       20.93275       10.16074       11.79626       -0.834
       21.08895        9.63705       11.01040        0.417
       20.02106       10.44219       11.71980        0.417
        8.95549       18.40261       23.95774       -0.834
        9.13351       18.27179       23.02638        0.417
        8.39186       17.66781       24.19986        0.417
       18.20009       20.32013       30.99791       -0.834
       18.40496       19.70758       31.70434        0.417
       18.38802       19.83287       30.19573        0.417
       16.18038        6.85491       26.80246       -0.834
       16.31671        6.17885       27.46623        0.417
       16.53944        6.47829       25.99905        0.417
       19.79928        2.84172       15.74189       -0.834
       20.48404        3.13858       15.14255        0.417
       19.96467        1.90517       15.85025        0.417
       26.07179       15.91666       12.66879       -0.834
       25.72289       15.19506       12.14553        0.417
       26.57106       15.48906       13.36458        0.417
       27.52073        6.68694       20.48140       -0.834
       26.84978        6.92935       19.84321        0.417
       28.34877        6.90540       20.05379        0.417
       31.30073       12.13039       14.54255       -0.834
       30.64345       12.45398       13.92651        0.417
       31.19766       12.68429       15.31637        0.417
       20.53528       17.05751       26.33630       -0.834
       21.37828       16.61046       26.26060        0.417
       20.55871       17.46926       27.20010        0.417
        5.15226       16.66022        9.28644       -0.834
        5.52121       17.42704        8.84816        0.417
        5.90913       16.10714        9.48003        0.417
       10.70366        9.63867        7.35589       -0.834
       10.53961        8.84429        6.84768        0.417
       10.80575        9.33065        8.25641        0.417
       16.29211       21.13644       20.99708       -0.834
       15.92542       21.29206       21.86745        0.417
       15.99582       21.88202       20.47501        0.417
        3.99220       23.29742       22.29113       -0.834
        3.87113       22.65056       22.98621        0.417
        4.22453       22.78031       21.51987        0.417
       10.99646       22.90471       29.41910       -0.834
       10.13409       22.79159       29.01941        0.417
       11.61479       22.70225       28.71703        0.417
       17.50830        5.00521       17.39265       -0.834
       18.29403        4.65005       17.80825        0.417
       16.89253        4.27251       17.37794        0.417
       20.87025       29.75961       21.24986       -0.834
       21.14681       29.93515       22.14927        0.417
       20.80856       30.62459       20.84460        0.417
       25.22541       17.83378       25.65030       -0.834
       25.70825       17.40865       26.35908        0.417
       25.46184       17.33688       24.86710        0.417
       23.13464       24.41696        7.41120       -0.834
       22.46300       25.01842        7.08968        0.417
       23.76000       24.34774        6.68984        0.417
       23.81185       24.31205       14.50675       -0.834
       23.32700       23.76118       15.12133        0.417
       24.53874       24.66315       15.02114        0.417
        7.26120       24.68373       17.85017       -0.834
        7.59624       24.73738       18.74522        0.417
        7.16749       25.59540       17.57395        0.417
       15.82654       20.72480        4.38086       -0.834
       15.10684       20.28048        3.93271        0.417
       15.78018       21.62931        4.07110        0.417
       19.35092       14.48490       26.70172       -0.834
       20.17062       14.97178       26.61645        0.417
       19.48948       13.91188       27.45582        0.417
       25.13178       14.51560       25.16753       -0.834
       26.05499       14.67057       25.36727        0.417
       24.86079       13.84270       25.79203        0.417
       23.57377       10.07696       21.76415       -0.834
       23.83590        9.43869       22.42757        0.417
       23.40899       10.88105       22.25661        0.417
        9.80668       18.17163       21.12396       -0.834
        9.26503       18.52642       20.41900        0.417
       10.58583       18.72760       21.13097        0.417
       16.68357        7.50664       17.30625       -0.834
       16.84138        6.59736       17.05222        0.417
       17.54557        7.83885       17.55690        0.417
       13.49578       31.38086       14.77666       -0.834
       12.73927       31.95074       14.91509        0.417
       13.11956       30.54614       14.49751        0.417
       19.52421       25.79300       19.43637       -0.834
       19.00413       26.59299       19.36048        0.417
       20.41508       26.06398       19.21466        0.417
       10.76998       11.98902        9.42551       -0.834
       10.59888       11.35057        8.73318        0.417
       11.41118       11.56143        9.99318        0.417
       13.35948        6.15221       22.79759       -0.834
       14.14452        6.62720       22.52496        0.417
       13.66614        5.55170       23.47698        0.417
       27.85506       21.45519       11.55870       -0.834
       26.91727       21.31856       11.42409        0.417
       28.23218       20.57587       11.53041        0.417
       21.65806       27.83879       19.35030       -0.834
       21.56444       28.43547       20.09289        0.417
       22.14460       28.34236       18.69767        0.417
       10.47752       25.55198       18.17348       -0.834