%Nproc=32
%Mem=120Gb
%chk=temp.chk
#p cam-b3lyp/6-31+G(d,p) nosymm charge Freq 

Calculation for S0 with freq for abs spect

0  1
 C         15.67001       17.52951       16.07990
 C         17.29263       15.73382       15.50664
 C         17.69386       15.59301       16.75284
 C         17.02629       16.30618       17.76575
 N         16.02668       17.20797       17.42578
 H         17.67125       15.12497       14.63812
 H         18.45954       14.96849       17.03646
 O         17.17321       16.07324       18.97937
 O         14.84122       18.33227       15.79511
 N         16.36929       16.69331       15.18925
 H         15.95504       16.77448       14.32139
 H         15.50575       17.72944       18.15479
 O         16.19552       18.03983       11.72202
 H         15.83250       18.76986       12.22351
 H         17.03776       18.36348       11.40247
 O         19.04941       20.55335       15.26921
 H         18.86845       21.40022       14.86141
 H         18.45765       19.94349       14.82862
 O         20.51000       15.40913       18.74939
 H         20.82462       14.85716       18.03344
 H         19.68520       15.77281       18.42740
 O         18.73402       11.56199       16.59526
 H         19.41616       11.20271       16.02796
 H         18.55736       12.43181       16.23690
 O         20.45328       15.74781       14.53187
 H         20.16627       15.98796       13.65086
 H         20.70064       14.82587       14.46072
 O         15.55186       19.54519       19.90886
 H         15.83408       19.57764       18.99479
 H         15.20746       20.42077       20.08491
 O         17.46990       13.91909       19.40568
 H         18.09282       13.30812       19.79927
 H         17.74227       14.77904       19.72587
 O         17.82466       16.27494       20.62174
 H         18.05800       15.56295       21.21743
 H         16.87671       16.36693       20.71738
 O         11.84096       15.48669       17.06319
 H         11.03088       15.57379       16.56078
 H         12.53662       15.53871       16.40776
 O         13.89386       15.28604       15.48172
 H         13.56670       15.44106       14.59562
 H         14.63273       14.68907       15.36373
 O         12.99933       18.83840       17.46267
 H         12.47499       18.69277       16.67521
 H         13.73162       19.37917       17.16676
 O         15.66421       15.41474       12.53056
 H         15.86855       16.34142       12.40509
 H         14.77677       15.31585       12.18574
 O         14.97837       16.79793       20.99284
 H         14.23773       16.56897       20.43136
 H         14.84616       17.72326       21.19904
 O         20.28881       17.88611       16.32241
 H         20.62037       18.67461       15.89280
 H         20.43578       17.18629       15.68611
 O         17.86246       13.92949       12.08939
 H         17.53081       13.58034       11.26214
 H         17.13985       14.45301       12.43581
 O         14.79352       21.19433       15.67683
 H         15.34794       21.84845       16.10223
 H         15.29400       20.91829       14.90901
 O         18.83082       18.56035       18.74476
 H         18.14900       17.91122       18.91792
 H         19.27129       18.24145       17.95703
 O         14.45369       14.03948       19.07774
 H         13.76592       14.25475       19.70772
 H         14.11791       13.27652       18.60724
 O         15.62319       13.17457       14.49117
 H         15.83524       13.71994       13.73365
 H         16.32421       13.35193       15.11834
 O         18.02037       21.02112       18.12718
 H         18.42267       20.95006       17.26154
 H         18.07488       20.13721       18.49044
 O         12.77405       16.78973       19.35560
 H         12.84393       16.10114       18.69441
 H         12.71188       17.60106       18.85151
 
       18.51041        6.78589       24.74800       -0.834
       18.44975        5.83064       24.75438        0.417
       18.64998        7.02362       25.66464        0.417
        6.04362       24.97880       18.54728       -0.834
        5.77373       24.09202       18.78605        0.417
        6.51060       25.30307       19.31735        0.417
       17.19026       11.14422        6.97246       -0.834
       17.91338       10.80296        6.44627        0.417
       16.63496       10.38272        7.13976        0.417
        6.45925       14.70598        7.74571       -0.834
        6.62760       13.83664        8.10921        0.417
        5.50555       14.78762        7.75069        0.417
       31.11061       16.63475       10.77590       -0.834
       30.16700       16.66943       10.61897        0.417
       31.30756       17.45081       11.23578        0.417
       21.47593       16.02205       26.49837       -0.834
       22.35484       15.75655       26.76902        0.417
       20.96303       16.01317       27.30650        0.417
       12.63465       15.46376       13.22236       -0.834
       11.72932       15.15327       13.20781        0.417
       12.61318       16.28892       12.73770        0.417
       19.34475       17.03917       28.75953       -0.834
       19.11612       17.11425       29.68599        0.417
       19.50126       17.94029       28.47718        0.417
       28.95683       10.17250       20.89105       -0.834
       29.11023       10.94010       20.34015        0.417
       28.14972       10.37429       21.36443        0.417
        8.10135       13.22737       25.94846       -0.834
        8.92210       13.66472       25.72189        0.417
        7.41876       13.82354       25.64042        0.417
       21.23143       24.25758       19.43566       -0.834
       21.79175       23.48158       19.44534        0.417
       21.83139       24.98474       19.26974        0.417
       28.86832       21.43309       17.86992       -0.834
       29.25979       20.56039       17.90697        0.417
       28.90299       21.75018       18.77241        0.417
        3.28588       19.83168        9.96504       -0.834
        3.13179       20.59727       10.51854        0.417
        4.18542       19.57034       10.16193        0.417
       14.67932       17.57715       31.01591       -0.834
       15.05372       16.69629       31.00380        0.417
       14.43091       17.74485       30.10684        0.417
       29.96137       12.64137       19.52469       -0.834
       30.02186       13.45016       20.03305        0.417
       29.69541       12.92667       18.65056        0.417
       13.04329       22.32735       26.38055       -0.834
       13.54449       23.13189       26.24730        0.417
       12.66973       22.41970       27.25700        0.417
       11.21326       27.82410        7.34559       -0.834
       11.67023       26.99220        7.46949        0.417
       10.99965       27.84395        6.41273        0.417
       11.38238       18.02853       15.12973       -0.834
       10.47054       17.92684       14.85690        0.417
       11.65220       18.86790       14.75706        0.417
       23.27669       25.31213       13.67068       -0.834
       22.47048       24.81118       13.79438        0.417
       23.96447       24.64907       13.61108        0.417
       25.41000       23.06462       24.29606       -0.834
       25.92517       22.46529       24.83607        0.417
       25.13180       23.75305       24.90012        0.417
       19.57025       29.54489       11.87016       -0.834
       18.93345       29.16965       11.26196        0.417
       19.09365       30.24628       12.31415        0.417
       19.83294       17.53715       22.14447       -0.834
       19.26648       17.00326       21.58741        0.417
       19.27801       18.26571       22.42285        0.417
       10.04255       13.31957        5.16353       -0.834
        9.41885       13.77997        4.60205        0.417
       10.14084       13.88659        5.92842        0.417
       16.15053       26.58442       23.13315       -0.834
       16.12737       26.85140       22.21423        0.417
       15.24003       26.64203       23.42281        0.417
       23.99903       23.16213       16.34661       -0.834
       24.60514       23.89555       16.24193        0.417
       23.88450       23.07869       17.29326        0.417
       20.59436       21.16109       24.96179       -0.834
       19.91139       21.52737       25.52359        0.417
       20.44218       20.21632       24.98387        0.417
       13.57171       14.15217       29.64213       -0.834
       14.50119       14.36940       29.71364        0.417
       13.35276       14.33248       28.72792        0.417
        6.11866       17.42672       22.50534       -0.834
        6.74361       18.01102       22.93459        0.417
        5.31842       17.50832       23.02417        0.417
       18.49443        3.85225       21.39266       -0.834
       17.60769        3.83476       21.75267        0.417
       19.05469        3.58582       22.12160        0.417
        5.69930       10.27054       23.07768       -0.834
        5.16190       10.95918       22.68626        0.417
        5.65588        9.54745       22.45199        0.417
       13.29412       13.63549        7.25767       -0.834
       13.65191       12.88614        7.73379        0.417
       12.48479       13.85028        7.72144        0.417
       13.10794       14.42381       24.44397       -0.834
       13.75851       14.30009       25.13512        0.417
       13.28704       15.29878       24.09963        0.417
       25.74401       11.65912       16.09207       -0.834
       25.75343       10.72984       16.32138        0.417
       24.87944       11.96517       16.36608        0.417
        3.83000       16.20975       20.82655       -0.834
        3.89945       16.71897       20.01902        0.417
        3.43341       16.81159       21.45642        0.417
       20.24023       12.96052       12.82242       -0.834
       20.53650       12.35077       12.14664        0.417
       19.38702       13.26513       12.51344        0.417
       23.87529       13.13864       19.85688       -0.834
       23.40903       13.39240       19.06036        0.417
       23.55155       13.74097       20.52667        0.417
       14.66967       10.16079       21.39830       -0.834
       15.51286       10.43767       21.03970        0.417
       14.02063       10.54102       20.80636        0.417
       26.20755       16.94944       28.80890       -0.834
       25.41186       17.10724       28.30076        0.417
       25.92323       16.99892       29.72156        0.417
       18.52947       14.22623       22.34555       -0.834
       19.05272       14.38473       23.13125        0.417
       18.52928       13.27429       22.24535        0.417
       19.57274       25.44151       13.14555       -0.834
       19.92459       26.31621       13.31105        0.417
       20.14267       24.85540       13.64344        0.417
        6.57366       15.16098       24.29910       -0.834
        5.62345       15.05049       24.26573        0.417
        6.82643       15.33980       23.39336        0.417
       21.55045       11.42438       14.56965       -0.834
       21.08158       12.19824       14.25733        0.417
       22.14475       11.19879       13.85401        0.417
       15.34737       10.99383       24.28020       -0.834
       15.46626       10.64069       23.39850        0.417
       14.95799       11.85733       24.14237        0.417
       14.23331        8.21081        7.17887       -0.834
       14.22736        7.97916        8.10759        0.417
       13.32090        8.41865        6.97752        0.417
       12.52450       22.52270       21.17035       -0.834
       12.29848       21.69165       21.58809        0.417
       12.35220       23.18326       21.84133        0.417
        4.43878       16.47570       10.58661       -0.834
        4.80712       17.21565       10.10389        0.417
        4.21507       15.83576        9.91083        0.417
       25.91403       12.50359        9.74962       -0.834
       26.66845       12.62518        9.17317        0.417
       25.15762       12.71679        9.20316        0.417
       16.30767       23.24290       29.28211       -0.834
       15.58734       22.70871       29.61677        0.417
       16.86830       23.39371       30.04315        0.417
       10.59803       13.01097       18.28421       -0.834
       10.06502       13.41597       18.96840        0.417
       10.93759       13.74808       17.77667        0.417
       19.30575        6.76942       17.28919       -0.834
       19.69132        6.92295       16.42664        0.417
       18.37896        6.98192       17.17906        0.417
       17.30754       10.89208       13.31686       -0.834
       18.20456       10.82849       13.64482        0.417
       17.26479       11.75280       12.90024        0.417
       12.34784       11.23422       20.04248       -0.834
       11.68307       11.51931       19.41556        0.417
       12.67797       12.04581       20.42791        0.417
        7.87784       24.88854       23.68831       -0.834
        7.67559       23.96377       23.83016        0.417
        8.17965       24.93176       22.78096        0.417
       17.28422       17.68873       24.48144       -0.834
       17.14574       18.46218       25.02809        0.417
       17.48001       18.04055       23.61304        0.417
       23.88994       24.89400       26.07652       -0.834
       24.60087       25.53324       26.12322        0.417
       23.09480       25.42341       26.01559        0.417
       12.98964        4.42595       24.53980       -0.834
       13.81171        4.13358       24.93343        0.417
       12.80117        5.26026       24.96951        0.417
       21.76028       19.85245        3.79171       -0.834
       20.92787       19.38056        3.81687        0.417
       21.81745       20.28385        4.64427        0.417
       17.53496       25.55345       18.12140       -0.834
       17.50611       26.43896       18.48381        0.417
       16.94367       25.58260       17.36924        0.417
       18.92046       13.11459       26.93854       -0.834
       18.48822       13.46138       27.71902        0.417
       18.25767       13.17448       26.25054        0.417
        9.52323        4.48509       19.72792       -0.834
        9.81218        4.41028       20.63739        0.417
        8.89730        5.20926       19.73378        0.417
        9.91031        4.53662       12.17678       -0.834
        9.51207        4.86400       12.98329        0.417
       10.85008        4.66772       12.30278        0.417
       12.82380       25.60234        7.59436       -0.834
       12.93266       26.08621        8.41305        0.417
       13.68944       25.23485        7.41588        0.417
       28.00340       13.56506       16.89908       -0.834
       27.61286       14.21881       17.47901        0.417
       27.25751       13.16324       16.45364        0.417
       17.73148       28.80267       10.05466       -0.834
       17.09354       28.49765       10.69981        0.417
       17.20637       29.24908        9.39042        0.417
       15.42977       20.40375        6.31232       -0.834
       16.02328       21.00683        5.86480        0.417
       14.71035       20.27254        5.69471        0.417
       12.21911       23.52722       28.96075       -0.834
       11.36839       23.57096       29.39733        0.417
       12.43235       24.43826       28.75882        0.417
       12.35540       19.76830        6.88676       -0.834
       12.33260       19.05210        6.25212        0.417
       11.46897       20.12924        6.87326        0.417
       16.94614       14.49135       25.12220       -0.834
       17.22275       14.92692       24.31597        0.417
       17.00228       15.17119       25.79368        0.417
        9.92492        8.14973       14.67286       -0.834
       10.67783        7.77269       14.21766        0.417
        9.54862        8.76608       14.04459        0.417
       30.71374       13.33621       16.07666       -0.834
       31.19536       14.10064       16.39278        0.417
       29.83232       13.44316       16.43427        0.417
       24.42105       15.21019       26.54386       -0.834
       24.49132       16.07237       26.13404        0.417
       25.32752       14.92927       26.66882        0.417
       13.92062       11.97624       17.15584       -0.834
       13.74617       12.44164       16.33780        0.417
       13.72680       11.06023       16.95685        0.417
       22.47051        3.23803       18.86176       -0.834
       22.60307        3.50195       17.95126        0.417
       21.52100        3.25715       18.98135        0.417
       19.49511       13.38106        5.40183       -0.834
       19.84718       13.36840        6.29185        0.417
       19.98117       14.07817        4.96137        0.417
       24.95402       19.26128        9.36327       -0.834
       25.01992       19.21938       10.31728        0.417
       24.04857       19.01501        9.17420        0.417
       16.72688       29.83852       23.99745       -0.834
       17.05239       29.39763       24.78224        0.417
       17.37125       29.63080       23.32078        0.417
       13.47942       11.84864       13.74093       -0.834
       14.26298       12.24247       14.12454        0.417
       12.78214       12.47999       13.91820        0.417
       23.32976        5.20267       23.99637       -0.834
       23.66343        4.40602       24.40899        0.417
       23.43094        5.04703       23.05735        0.417
       13.09035       24.63980       17.33698       -0.834
       13.10171       24.84985       18.27078        0.417
       13.76945       23.97334       17.23264        0.417
       11.30642       15.92529       30.14161       -0.834
       10.79581       16.42439       30.77911        0.417
       11.97191       15.47807       30.66442        0.417
       14.32733       28.00417       18.36512       -0.834
       14.74088       28.79446       18.01778        0.417
       13.54884       27.88205       17.82173        0.417
       25.67210       22.50107        9.55278       -0.834
       25.89178       23.14313       10.22786        0.417
       25.04819       22.95359        8.98515        0.417
       28.49183       10.70575       24.67136       -0.834
       29.06254       11.10078       24.01222        0.417
       27.83502       11.37771       24.85388        0.417
       17.51136       10.54056       25.79409       -0.834
       17.31458       10.30871       26.70169        0.417
       16.66143       10.52966       25.35393        0.417
       30.15946       12.17281       11.22506       -0.834
       30.19293       12.65936       12.04869        0.417
       31.01714       12.31788       10.82559        0.417
       14.19522       11.45023        8.71605       -0.834
       14.79307       11.93898        9.28168        0.417
       14.40137       10.53111        8.88622        0.417
       27.33153        7.08697       14.51948       -0.834
       27.62696        7.14607       13.61093        0.417
       27.85370        7.74058       14.98463        0.417
       26.92857       21.72923        7.21219       -0.834
       26.95827       20.77250        7.21638        0.417
       26.53171       21.96069        8.05193        0.417
        7.53189       11.76457       15.80462       -0.834
        7.17003       12.64191       15.92937        0.417
        7.77576       11.47817       16.68481        0.417
       27.01701       12.79380       13.80839       -0.834
       26.35150       12.60205       14.46912        0.417
       27.59220       12.02876       13.81804        0.417
       14.88996       21.54970       24.20056       -0.834
       14.46573       21.12806       23.45325        0.417
       14.20388       21.60599       24.86567        0.417
        8.10531       11.43205       23.74746       -0.834
        7.22217       11.06308       23.76010        0.417
        8.02538       12.26205       24.21751        0.417
       18.45006       26.10529       24.68592       -0.834
       18.10595       26.14636       25.57819        0.417
       17.67397       26.01201       24.13346        0.417
       18.99665       11.24382       19.42437       -0.834
       19.78356       10.69930       19.40216        0.417
       18.63245       11.17536       18.54181        0.417
       12.86336       22.32018        7.08072       -0.834
       12.37240       22.31824        7.90241        0.417
       13.00376       21.39423        6.88286        0.417
       27.99828        7.56463       11.93641       -0.834
       28.00247        8.49397       11.70718        0.417
       28.77328        7.20707       11.50309        0.417
        6.26853        9.94239       13.95652       -0.834
        6.04764        9.59481       14.82060        0.417
        6.90347       10.63679       14.13230        0.417
       22.35035       21.90614       29.51099       -0.834
       22.21261       21.85068       28.56537        0.417
       21.59001       22.38804       29.83640        0.417
       13.25315       27.18123        9.98618       -0.834
       13.26489       28.08587        9.67358        0.417
       14.15532       27.00866       10.25551        0.417
       24.89341       22.33168       27.24303       -0.834
       24.37997       23.11730       27.05484        0.417
       24.26804       21.61143       27.16315        0.417
       21.49467       19.82184       18.73178       -0.834
       21.87662       18.97425       18.95968        0.417
       20.55536       19.70865       18.87709        0.417
       26.04671       24.97512       15.83167       -0.834
       26.28856       25.89209       15.96167        0.417
       26.01421       24.86794       14.88104        0.417
       14.27671        8.28132       15.49557       -0.834
       14.52033        7.40578       15.19505        0.417
       15.10592        8.75668       15.54726        0.417
       23.16903       14.43782       16.92775       -0.834
       22.97487       15.01489       16.18915        0.417
       24.06428       14.66390       17.18005        0.417
        6.28318       22.84073       20.79229       -0.834
        6.05710       21.91139       20.83028        0.417
        5.51429       23.28934       21.14413        0.417
       17.85604       11.21526        9.71794       -0.834
       18.78350       11.03877        9.56011        0.417
       17.70271       12.07042        9.31617        0.417
       14.54489        9.94255       29.96289       -0.834
       14.73915        9.23556       29.34754        0.417
       13.85799       10.45247       29.53350        0.417
       15.04158       18.09567        7.64550       -0.834
       14.40925       17.67002        7.06653        0.417
       15.34453       18.85744        7.15136        0.417
        7.89565       24.64805       11.58055       -0.834
        7.55595       25.24053       12.25122        0.417
        8.04568       23.82330       12.04262        0.417
       10.03798       21.08625        6.37555       -0.834
       10.38727       21.96890        6.25248        0.417
        9.15447       21.12455        6.00927        0.417
       15.62313       13.40311       21.89363       -0.834
       15.49103       13.46268       20.94746        0.417
       16.49606       13.02254       21.99058        0.417
       22.85954       26.46027       18.98872       -0.834
       23.65178       25.92429       19.02534        0.417
       23.06763       27.23242       19.51476        0.417
       10.68683       10.92726       16.40906       -0.834
       10.95029       11.65122       16.97712        0.417
       10.02394       11.30484       15.83092        0.417
       28.89287       23.37951       15.84886       -0.834
       28.54867       22.85222       15.12794        0.417
       28.81507       22.81471       16.61774        0.417
       13.66912       24.83742       26.04864       -0.834
       14.35563       25.49199       26.17700        0.417
       12.85421       25.30552       26.23043        0.417
       20.98775       22.35798       11.59545       -0.834
       21.36103       22.02145       10.78080        0.417
       21.71479       22.34041       12.21781        0.417
        6.24610       20.61662       15.96869       -0.834
        6.72387       21.07576       16.65945        0.417
        5.73036       21.29911       15.53921        0.417
       19.14867       18.72440       10.62007       -0.834
       19.51752       19.47190       10.14951        0.417
       18.90196       18.10594        9.93241        0.417
       27.63698       21.67512       14.07135       -0.834
       26.91196       21.26755       14.54513        0.417
       28.13217       20.93932       13.71132        0.417
       10.63096        4.57034       22.44039       -0.834
       11.40796        4.12251       22.77497        0.417
        9.99668        4.51690       23.15529        0.417
       12.46915       20.25231       13.81712       -0.834
       13.07633       20.77448       14.34144        0.417
       12.43872       20.69788       12.97050        0.417
        6.95667       16.95759       20.00952       -0.834
        6.97826       16.03111       19.76995        0.417
        6.28954       17.01308       20.69369        0.417
       26.73394       12.80378       19.64147       -0.834
       25.78664       12.91090       19.55554        0.417
       26.86862       11.85613       19.64860        0.417
        3.35019       17.72349       18.73792       -0.834
        2.46760       17.85024       18.38978        0.417
        3.81501       18.52940       18.51279        0.417
       13.65709       30.81741       15.06020       -0.834
       14.29342       31.39906       14.64426        0.417
       13.50587       30.12660       14.41511        0.417
        4.85695       22.71580       14.69447       -0.834
        4.99659       23.41395       15.33425        0.417
        5.11717       23.10135       13.85789        0.417
       15.06831       30.70298       17.72664       -0.834
       15.40770       31.56934       17.50199        0.417
       14.52769       30.45513       16.97662        0.417
       24.61341       24.29907        7.52648       -0.834
       24.35882       23.80309        6.74840        0.417
       23.78607       24.60899        7.89485        0.417
        8.22701       10.74241       21.01515       -0.834
        8.19954       10.96415       21.94591        0.417
        7.93137        9.83284       20.97632        0.417
       22.29883       30.40981       12.42963       -0.834
       22.37118       31.22643       12.92373        0.417
       21.39968       30.11763       12.57926        0.417
        8.69013       22.64494       12.99301       -0.834
        8.37763       21.77300       12.75157        0.417
        8.54586       22.69850       13.93776        0.417
       22.27192        3.21035       10.60365       -0.834
       21.94698        4.09159       10.78819        0.417
       21.93137        2.67415       11.31972        0.417
       15.49179       17.55372        3.49015       -0.834
       14.71684       18.08838        3.31741        0.417
       15.37451       17.24427        4.38832        0.417
       10.82332       16.22528        5.92147       -0.834
       10.52069       16.62723        5.10717        0.417
       10.10089       16.35469        6.53594        0.417
       20.65613        1.45524       15.06059       -0.834
       20.60508        1.18886       15.97856        0.417
       20.06775        2.20748       14.99592        0.417
       11.72028       27.99671       21.42500       -0.834
       10.98458       27.94176       22.03488        0.417
       11.65627       28.87519       21.05028        0.417
       15.99641       21.70671        8.99775       -0.834
       16.31486       20.99533        8.44208        0.417
       15.16029       21.38905        9.33866        0.417
       22.92887       20.96808       13.61137       -0.834
       23.62906       21.56729       13.87003        0.417
       22.44929       20.79539       14.42156        0.417
       13.50904       28.58445       13.43602       -0.834
       14.07878       28.62125       12.66773        0.417
       12.83604       27.94410       13.20528        0.417
       27.25544       14.44583       26.36330       -0.834
       27.53199       14.36193       27.27583        0.417
       27.81275       15.13732       26.00625        0.417
       21.59291        7.89847       27.15007       -0.834
       21.06363        8.69372       27.08943        0.417
       22.43385        8.19578       27.49741        0.417
       26.84791       18.92412       25.34175       -0.834
       26.74113       19.40419       24.52056        0.417
       27.53023       19.40270       25.81254        0.417
        9.10348        5.62326       14.82283       -0.834
        9.57024        5.19715       15.54172        0.417
        9.16356        6.55831       15.01853        0.417
        4.61627       21.50267       23.06567       -0.834
        3.70008       21.75825       23.17293        0.417
        4.64322       21.05545       22.21980        0.417
       23.12798       17.23439        4.30725       -0.834
       23.94503       17.06797        3.83720        0.417
       23.09716       18.18605        4.40545        0.417
        6.22966       11.35570       11.27819       -0.834
        6.61755       10.48092       11.25519        0.417
        5.32365       11.20941       11.55016        0.417
       10.17029       19.70846       18.93935       -0.834
       10.47424       19.26648       18.14657        0.417
       10.50451       20.60183       18.85918        0.417
       15.00199       22.51613       19.27035       -0.834