%Nproc=32
%Mem=120Gb
%chk=temp.chk
#p cam-b3lyp/6-31+G(d,p) nosymm charge Freq 

Calculation for S0 with freq for abs spect

0  1
 C         15.67001       17.52951       16.07990
 C         17.29263       15.73382       15.50664
 C         17.69386       15.59301       16.75284
 C         17.02629       16.30618       17.76575
 N         16.02668       17.20797       17.42578
 H         17.67125       15.12497       14.63812
 H         18.45954       14.96849       17.03646
 O         17.17321       16.07324       18.97937
 O         14.84122       18.33227       15.79511
 N         16.36929       16.69331       15.18925
 H         15.95504       16.77448       14.32139
 H         15.50575       17.72944       18.15479
 O         15.76776       19.84554       12.98721
 H         15.06559       20.29363       13.45880
 H         16.37365       19.56185       13.67179
 O         18.11824       19.01210       18.41756
 H         17.82858       19.88691       18.15865
 H         18.65445       18.71008       17.68442
 O         12.79404       19.09362       15.85813
 H         13.22061       18.50641       15.23407
 H         11.98774       19.36521       15.41955
 O         17.93866       14.27149       13.26389
 H         16.99034       14.25657       13.13464
 H         18.30096       14.03356       12.41045
 O         14.15009       14.49612       20.26098
 H         13.62184       13.90214       20.79425
 H         13.62125       15.29095       20.19167
 O         20.20240       13.89919       18.76777
 H         20.34879       13.76803       19.70457
 H         20.55254       14.77214       18.59006
 O         19.42254       12.23547       14.23919
 H         18.78193       12.88933       13.95936
 H         18.97800       11.74431       14.93011
 O         19.83068       16.98965       13.08690
 H         19.49345       16.48411       12.34735
 H         19.57152       17.89174       12.89903
 O         20.84216       16.62818       18.84274
 H         21.29598       16.89654       19.64165
 H         21.00932       17.33741       18.22202
 O         15.32905       14.03330       12.82776
 H         14.68362       13.74294       12.18328
 H         15.47194       13.26867       13.38557
 O         12.84407       20.46110       18.08489
 H         13.12325       19.73024       17.53341
 H         11.89902       20.34256       18.18010
 O         17.21439       21.38397       17.85467
 H         16.40223       21.78181       18.16827
 H         17.22377       21.56637       16.91506
 O         13.36735       17.16486       14.01467
 H         13.08909       16.24901       14.01032
 H         13.78975       17.29139       13.16509
 O         18.46847       16.85609       20.03060
 H         18.26228       17.70931       19.64885
 H         19.32430       16.63055       19.66603
 O         13.49459       17.81038       20.48960
 H         12.61478       18.04318       20.19299
 H         14.00066       17.70908       19.68346
 O         14.54175       12.73994       18.03991
 H         14.37814       13.41033       18.70327
 H         15.48127       12.79830       17.86637
 O         19.98768       19.63236       15.24175
 H         19.09108       19.39306       15.00705
 H         20.10740       20.50689       14.87149
 O         15.98883       16.54602       21.34375
 H         15.59911       15.95609       20.69852
 H         16.90517       16.62127       21.07750
 O         17.34867       12.48766       18.36897
 H         18.17545       12.79576       18.74011
 H         17.59940       12.04777       17.55665
 
       14.08494       21.29982       15.14247       -0.834
       13.44552       20.87933       15.71742        0.417
       14.65293       21.79243       15.73489        0.417
        6.66292       27.83005       14.19540       -0.834
        6.12027       28.12381       14.92716        0.417
        6.26150       27.00797       13.91382        0.417
       15.93142       20.58179        5.34709       -0.834
       15.49126       19.97112        4.75585        0.417
       15.22237       21.09858        5.72971        0.417
       19.00762       15.87016        8.03771       -0.834
       19.29126       16.65978        7.57698        0.417
       18.39294       15.44932        7.43662        0.417
       22.14293       18.83607        4.02782       -0.834
       21.71966       18.70682        3.17907        0.417
       21.55592       19.42542        4.50145        0.417
       10.06630       28.89502       14.09574       -0.834
       10.45058       28.06896       13.80218        0.417
       10.14768       28.87214       15.04920        0.417
       22.19561       13.37918        5.44156       -0.834
       21.91792       14.29189        5.51949        0.417
       22.23243       13.06166        6.34381        0.417
        6.76691       24.44552       17.30988       -0.834
        6.30185       25.28075       17.35820        0.417
        7.14252       24.32914       18.18258        0.417
        6.56691       17.13252        7.35114       -0.834
        6.87449       16.93163        8.23504        0.417
        6.66627       16.31103        6.86998        0.417
        6.13919       22.31996       10.04240       -0.834
        6.97510       22.50413       10.47085        0.417
        6.13507       22.88640        9.27080        0.417
       12.76769       15.87557       29.49631       -0.834
       12.34348       16.29150       28.74579        0.417
       12.60762       16.47511       30.22512        0.417
        2.57834       11.11653       16.02440       -0.834
        1.68376       10.79680       15.90725        0.417
        2.98419       11.01490       15.16347        0.417
       23.19649       26.72870       17.04147       -0.834
       23.68916       25.98863       16.68678        0.417
       23.46049       26.77443       17.96040        0.417
       22.72447        3.82857       16.84640       -0.834
       23.21977        3.85956       17.66491        0.417
       23.22746        3.23988       16.28366        0.417
       27.44609       26.40700       17.28350       -0.834
       26.82695       26.01760       17.90097        0.417
       27.75029       25.67106       16.75238        0.417
       16.00197       15.97600       10.33636       -0.834
       15.89850       15.17150       10.84460        0.417
       15.94297       15.69271        9.42395        0.417
       14.47268        5.80081       11.17571       -0.834
       13.67656        5.49453       10.74140        0.417
       15.09241        5.95194       10.46204        0.417
       17.22859        4.77663       10.92480       -0.834
       17.15304        5.29967       10.12671        0.417
       17.89907        5.22317       11.44180        0.417
       12.83578       11.61929        3.92425       -0.834
       12.26226       12.06524        3.30099        0.417
       12.32373       10.86961        4.22759        0.417
        9.21802       25.15943        8.19350       -0.834
        9.97385       24.57444        8.24586        0.417
        9.43984       25.89035        8.77038        0.417
       12.20588       11.32596        9.87809       -0.834
       11.95015       10.40977        9.98501        0.417
       12.26397       11.44992        8.93073        0.417
       18.63071       14.44245       10.42089       -0.834
       17.93981       13.89369       10.04976        0.417
       18.82431       15.08128        9.73485        0.417
       20.34460       31.11336       16.20888       -0.834
       20.22247       30.30515       16.70698        0.417
       19.90111       30.95143       15.37621        0.417
       24.48401       13.98939        4.12862       -0.834
       23.81144       13.86110        4.79752        0.417
       24.11489       14.64818        3.54042        0.417
       17.45065        9.12964       23.64356       -0.834
       18.20315        9.68858       23.44977        0.417
       17.41533        9.09767       24.59957        0.417
       16.51642       12.50664        9.65327       -0.834
       16.36632       11.60730        9.94462        0.417
       15.70741       12.96842        9.87346        0.417
       27.55860        6.17083       16.95860       -0.834
       27.72688        5.96260       17.87760        0.417
       26.60522        6.14455       16.87726        0.417
       23.79527        6.09315       23.35358       -0.834
       23.65815        6.73559       22.65737        0.417
       23.16150        6.33296       24.02964        0.417
       10.09632       12.59005       15.82416       -0.834
       10.37210       13.37704       15.35425        0.417
        9.19546       12.77313       16.09093        0.417
       23.40705       11.00058        3.83357       -0.834
       23.86456       11.82967        3.69384        0.417
       22.70994       11.21279        4.45425        0.417
        8.82321       14.17752        4.73248       -0.834
        9.21785       14.73761        4.06406        0.417
        9.46007       14.17143        5.44705        0.417
       26.39736       22.71449        9.74861       -0.834
       26.53394       21.91146        9.24589        0.417
       27.10318       22.71582       10.39518        0.417
       16.08548       14.39585       30.37682       -0.834
       16.03982       14.66694       29.45994        0.417
       15.29954       13.86590       30.50980        0.417
       18.75152       11.94756       27.20709       -0.834
       19.44104       12.20451       26.59491        0.417
       18.89966       11.01390       27.35729        0.417
       23.20842        9.99017       11.71499       -0.834
       22.78851       10.78754       12.03765        0.417
       23.98400       10.29981       11.24720        0.417
       18.66899       14.38328       24.64560       -0.834
       18.00081       14.34258       23.96142        0.417
       18.22343       14.78263       25.39274        0.417
       16.66225       22.74884       24.79901       -0.834
       16.36773       23.57855       24.42341        0.417
       16.57429       22.11750       24.08493        0.417
       14.57144        3.89245       19.55062       -0.834
       15.47040        3.79336       19.86413        0.417
       14.10378        3.14464       19.92253        0.417
        8.22607       10.81268        7.16283       -0.834
        8.61131       10.82661        8.03898        0.417
        7.39373       11.27543        7.25927        0.417
       23.26324       12.22274        8.63726       -0.834
       23.43785       11.74801        9.44989        0.417
       24.12610       12.50561        8.33444        0.417
       20.02024        3.26616       12.29209       -0.834
       20.93192        3.02835       12.46095        0.417
       19.99333        4.21524       12.41357        0.417
       23.79645       29.72933       16.49645       -0.834
       23.39993       28.85846       16.47225        0.417
       24.20034       29.83314       15.63486        0.417
       15.42423       10.46293       19.11387       -0.834
       14.89177       11.06747       18.59691        0.417
       16.31182       10.81689       19.05794        0.417
       23.56183       25.08756       21.43848       -0.834
       24.16191       25.38935       22.12045        0.417
       24.10817       25.00665       20.65669        0.417
       18.07896       25.17664       13.56971       -0.834
       17.17357       25.28427       13.86109        0.417
       18.58719       25.74138       14.15195        0.417
        5.96679        9.15628       19.89308       -0.834
        5.75319        9.93878       19.38485        0.417
        6.03514        8.45828       19.24166        0.417
       22.00745       22.63123        9.41828       -0.834
       22.39980       23.42696        9.77761        0.417
       22.66776       22.28910        8.81565        0.417
       28.97977       11.94100        9.67088       -0.834
       28.15346       11.51103        9.89128        0.417
       29.41592       12.06889       10.51329        0.417
       13.25261        5.56835       15.42146       -0.834
       12.37106        5.25268       15.22280        0.417
       13.77723        4.77303       15.51354        0.417
        6.00887       13.04303       19.41190       -0.834
        5.64606       12.27510       18.97046        0.417
        6.91394       12.80146       19.60867        0.417
       24.70544       13.86070       27.13390       -0.834
       23.80334       14.01092       27.41653        0.417
       24.62299       13.48736       26.25638        0.417
       15.19213        6.67382       13.76091       -0.834
       14.97674        6.05789       13.06058        0.417
       14.46805        6.59396       14.38185        0.417
        7.59734        4.75475       16.57157       -0.834
        7.07245        4.31657       17.24144        0.417
        8.34152        4.16983       16.42915        0.417
       14.11080       11.56893       27.45313       -0.834
       14.10819       12.51182       27.61798        0.417
       15.00169       11.29064       27.66550        0.417
       16.59341       24.99932       21.07266       -0.834
       16.67581       25.14877       22.01453        0.417
       17.29263       24.37915       20.86600        0.417
       11.55431       15.28829       22.90109       -0.834
       11.12254       15.03173       23.71595        0.417
       11.52391       14.50231       22.35561        0.417
       21.60336       15.74772        4.53403       -0.834
       20.94971       16.07152        3.91424        0.417
       22.18443       16.49391        4.68168        0.417
        2.11865       16.48134       11.66238       -0.834
        2.44031       15.59667       11.83594        0.417
        1.97318       16.50255       10.71654        0.417
       19.46340       18.59662       24.95937       -0.834
       20.06868       19.19476       25.39767        0.417
       19.43906       18.90177       24.05244        0.417
       22.07212       15.43741       13.86745       -0.834
       21.97130       15.02808       13.00808        0.417
       21.41489       16.13319       13.88045        0.417
        9.33753       21.80688        6.81059       -0.834
       10.03047       22.46678        6.78613        0.417
        8.55351       22.27118        6.51737        0.417
       25.68999        8.78936       14.06827       -0.834
       26.32558        9.49612       14.18120        0.417
       25.36441        8.61600       14.95154        0.417
       16.69670       14.30700       22.76836       -0.834
       16.35225       15.16110       22.50738        0.417
       16.06854       13.67686       22.41540        0.417
        6.29390       17.59804       11.89336       -0.834
        6.56438       17.05874       11.15024        0.417
        5.73663       18.27458       11.50867        0.417
       22.02560       22.44647       22.38854       -0.834
       21.10618       22.62508       22.58599        0.417
       22.51371       23.02261       22.97679        0.417
       18.75420       21.16209       12.74090       -0.834
       18.22121       20.43084       12.42877        0.417
       19.24203       21.45001       11.96931        0.417
       17.63069       22.42914       27.42337       -0.834
       17.69411       21.47752       27.50479        0.417
       17.12450       22.56831       26.62298        0.417
        9.14443       20.45936        9.34157       -0.834
        9.31160       20.99948        8.56920        0.417
        8.44013       19.86905        9.07375        0.417
        9.65653       15.41496       15.17116       -0.834
        9.47790       16.28191       15.53547        0.417
        9.98221       15.58826       14.28791        0.417
       21.61572       12.06554       12.41115       -0.834
       21.79375       12.85341       11.89754        0.417
       20.72410       12.18796       12.73714        0.417
        9.55191       16.59564       28.54287       -0.834
       10.12678       17.35064       28.66829        0.417
        9.54295       16.15688       29.39354        0.417
       12.20319       11.54176       25.47836       -0.834
       11.50497       11.08350       25.94604        0.417
       12.95642       11.49642       26.06727        0.417
       17.28045       10.13454        7.22035       -0.834
       16.78669       10.95262        7.27666        0.417
       18.13148       10.39180        6.86568        0.417
       20.22897        9.22381       23.28112       -0.834
       20.98598        9.36817       22.71337        0.417
       20.24158        8.28425       23.46362        0.417
       27.24286        9.53721       20.40814       -0.834
       27.16148       10.48262       20.53384        0.417
       26.38547        9.26379       20.08201        0.417
        3.99591       15.13319       25.40778       -0.834
        3.73353       15.17282       26.32746        0.417
        4.95178       15.17910       25.42874        0.417
       16.07366       24.30881       28.45693       -0.834
       16.53493       23.50899       28.20444        0.417
       16.37260       24.96662       27.82911        0.417
       26.58392       12.67814       14.46825       -0.834
       27.23313       11.98285       14.57465        0.417
       25.78056       12.31553       14.84158        0.417
       21.91417       14.32415       27.60059       -0.834
       21.64194       15.07360       27.07102        0.417
       21.30225       14.31543       28.33660        0.417
       27.30272        9.90416       10.38499       -0.834
       27.87494        9.26427       10.80847        0.417
       27.17733        9.56459        9.49888        0.417
        2.51233       21.55224       19.71255       -0.834
        2.86362       20.73183       19.36650        0.417
        1.61652       21.33858       19.97353        0.417
       27.02562       12.71461       17.76247       -0.834
       27.25146       13.61790       17.54046        0.417
       26.08236       12.65857       17.60964        0.417
        2.46396       18.58494       19.59161       -0.834
        3.00868       17.80374       19.49541        0.417
        1.64137       18.35887       19.15748        0.417
       25.23995       21.29256       27.68764       -0.834
       24.87624       20.82896       28.44198        0.417
       24.96998       22.20242       27.81214        0.417
       17.90966        7.89416       13.58897       -0.834
       17.99507        8.26472       14.46739        0.417
       17.08230        7.41330       13.61076        0.417
       25.84452       16.36198       27.76698       -0.834
       25.51757       15.52752       27.43082        0.417
       25.18134       17.00161       27.50757        0.417
       27.51513       17.66765       19.67152       -0.834
       26.66230       17.99333       19.95934        0.417
       28.00520       18.45500       19.43457        0.417
        1.58818       15.62542       17.39005       -0.834
        2.27060       14.96841       17.25263        0.417
        1.40474       15.96753       16.51509        0.417
       26.21559       18.61250       10.65924       -0.834
       25.43309       18.74670       11.19396        0.417
       26.74627       17.99411       11.16144        0.417
        4.83407       22.02488       21.21516       -0.834
        4.11964       21.98779       20.57920        0.417
        5.04688       21.10831       21.39076        0.417
        7.88244       11.53329       21.97869       -0.834
        8.45839       11.64278       22.73536        0.417
        8.46947       11.28678       21.26395        0.417
       15.37215       25.66219       14.68473       -0.834
       15.29799       26.58974       14.90919        0.417
       14.72451       25.22833       15.24021        0.417
       19.45578       23.05711       14.46445       -0.834
       19.01209       23.89528       14.33463        0.417
       19.13658       22.50368       13.75167        0.417
        8.63884       18.45426       16.01347       -0.834
        7.99598       19.07845       16.35014        0.417
        8.64933       18.60671       15.06854        0.417
       12.80486       29.32334       16.67873       -0.834
       11.91002       29.59758       16.87943        0.417
       13.15658       30.02980       16.13703        0.417
       23.85123       13.64917       20.07406       -0.834
       24.50811       14.05194       19.50615        0.417
       23.87621       14.16996       20.87680        0.417
        9.77346       24.61246       21.91899       -0.834
        9.86505       24.98854       21.04353        0.417
        9.23982       25.24653       22.39795        0.417
       14.65915        8.25392       16.96001       -0.834
       13.91115        8.71837       16.58450        0.417
       14.26854        7.56784       17.50126        0.417
       14.80466       25.36141       17.48543       -0.834
       15.61373       25.82903       17.69274        0.417
       14.85779       24.55256       17.99451        0.417
       20.78624       28.68413       17.29631       -0.834
       21.21144       29.31303       17.87934        0.417
       20.84087       27.84985       17.76238        0.417
       26.54163       27.23886       21.16681       -0.834
       26.30467       26.64074       21.87556        0.417
       27.26250       26.80101       20.71420        0.417
       12.53060       26.51826       16.29192       -0.834
       12.61534       27.46870       16.36751        0.417
       13.27583       26.17113       16.78219        0.417
       20.30319       28.34762       11.71309       -0.834
       20.71805       27.59126       12.12785        0.417
       19.97031       28.86923       12.44340        0.417
       21.01868       20.54903       26.02197       -0.834
       21.43127       20.26788       26.83864        0.417
       21.74764       20.83149       25.46965        0.417
       17.55138       14.76919        5.75166       -0.834
       17.73447       13.99946        5.21294        0.417
       16.67409       15.04488        5.48599        0.417
       15.34718       28.19806       15.58706       -0.834
       14.59581       28.54224       16.07000        0.417
       16.09289       28.70256       15.91205        0.417
       26.75758       21.04022       17.67952       -0.834
       27.47118       20.74870       18.24699        0.417
       26.49469       21.88695       18.04030        0.417
       12.77516       24.26805       14.66091       -0.834
       12.66964       25.01774       15.24663        0.417
       12.01744       23.71237       14.84344        0.417
       28.69971       24.47136       15.75140       -0.834
       29.64661       24.49962       15.88859        0.417
       28.59740       24.20126       14.83881        0.417
        8.67407       22.91603       11.17157       -0.834
        8.97427       22.02207       11.00741        0.417
        9.28388       23.25768       11.82551        0.417
       25.26678       29.15461       14.41115       -0.834
       26.17536       29.43255       14.29508        0.417
       25.23464       28.27557       14.03366        0.417
       14.13215       23.27118       22.00872       -0.834
       13.55475       22.61222       22.39422        0.417
       14.62529       22.79631       21.33972        0.417
       21.46972       27.10082       14.18736       -0.834
       21.88971       26.25455       14.03354        0.417
       21.71215       27.32949       15.08467        0.417
       15.69638       29.55892       18.83151       -0.834
       14.80238       29.89939       18.86419        0.417
       15.66886       28.76124       19.35989        0.417
        6.31048       10.56854       14.10395       -0.834
        6.65666        9.85293       14.63715        0.417
        6.35520       10.24168       13.20540        0.417
       29.36090       18.65338        9.20712       -0.834
       28.88110       18.08355        9.80821        0.417
       29.94345       18.06255        8.72985        0.417
        9.69802       10.56902       20.03770       -0.834
       10.42409       10.25806       20.57840        0.417
        9.91092       10.26857       19.15416        0.417
       17.77395       19.66799        8.81412       -0.834
       18.39252       19.13299        8.31675        0.417
       17.89228       20.55355        8.47057        0.417
       27.20270        7.12741       21.86279       -0.834
       27.15850        8.05063       21.61390        0.417
       27.12299        6.65186       21.03591        0.417
        5.10750       15.94469       13.60363       -0.834
        5.56001       16.58500       13.05457        0.417
        4.27904       16.36664       13.83130        0.417
       10.44924       22.73493       15.03498       -0.834
       10.78258       21.89268       14.72556        0.417
        9.51308       22.70991       14.83696        0.417
        5.52016       19.46370       22.37013       -0.834
        5.11542       18.63890       22.63868        0.417
        5.70586       19.91856       23.19162        0.417
       21.72794        5.85780       25.56696       -0.834
       20.83545        6.08630       25.30719        0.417
       21.62392        5.09927       26.14145        0.417
       19.64185       22.83621       23.37526       -0.834
       19.78135       23.15514       24.26692        0.417
       18.71207       22.61096       23.34367        0.417
       22.15727       21.98056        4.99203       -0.834
       22.52895       21.80206        4.12819        0.417
       22.85160       22.44330        5.46109        0.417
       20.81938       24.85521       20.51934       -0.834
       21.60822       24.44539       20.87433        0.417
       20.33195       25.14536       21.29035        0.417
       13.44992       25.01347       10.82736       -0.834
       13.10816       25.90051       10.93959        0.417
       13.97576       24.85784       11.61190        0.417
       21.77878       24.51345       27.42284       -0.834
       21.03746       24.09181       26.98822        0.417
       21.61886       25.45097       27.31463        0.417
       20.43985       13.53595       29.76451       -0.834
       20.43333       13.25774       30.68036        0.417
       19.69886       13.07690       29.36897        0.417
       20.61536       26.06616       24.17630       -0.834
       20.27958       26.46590       23.37400        0.417
       20.11971       26.48612       24.87930        0.417
       13.20865        8.36822       11.59551       -0.834
       12.45144        8.31796       11.01213        0.417
       13.64449        7.52178       11.49648        0.417
        4.53959       14.11783        9.03695       -0.834
        4.46881       14.75035        8.32202        0.417
        3.66904       14.10689        9.43477        0.417
       11.42481       27.61208       20.18461       -0.834
       10.62477       27.37900       19.71361        0.417
       11.86563       26.77624       20.33720        0.417
       23.73709        9.02702       16.02817       -0.834
       22.84605        8.89656       16.35261        0.417
       23.67089        9.78022       15.44119        0.417
       23.58470       19.14929       11.57037       -0.834
       22.80529       19.16930       11.01507        0.417
       23.51264       19.93419       12.11348        0.417
       17.23248       29.73210       16.82988       -0.834
       17.35748       30.68078       16.80503        0.417
       16.60578       29.59112       17.53953        0.417
       29.67458       11.12316       17.14309       -0.834
       28.86693       11.63541       17.10389        0.417
       29.65624       10.71193       18.00725        0.417
       24.21086       23.91679        6.42050       -0.834
       25.09817       24.27499        6.44501        0.417
       23.65842       24.62071        6.76042        0.417
       21.48681        4.03669       21.92972       -0.834
       21.41700        3.62734       22.79215        0.417
       22.38200        4.37391       21.89587        0.417
       18.53512       12.56287        3.91581       -0.834
       19.37489       12.66849        3.46874        0.417
       18.67551       11.83498        4.52137        0.417
       22.82055       25.93965        7.47731       -0.834
       21.94085       25.76879        7.81370        0.417
       23.34811       26.10595        8.25850        0.417
       14.38138        3.44750       16.52232       -0.834
       14.05249        3.52732       17.41770        0.417
       15.22949        3.89101       16.53775        0.417
       25.41815       23.05417       24.81797       -0.834
       24.54778       23.45217       24.83465        0.417
       25.81911       23.31914       25.64577        0.417
       19.68384       20.64180       20.46963       -0.834
       19.54676       20.09536       21.24348        0.417
       19.99807       20.03461       19.79969        0.417
        9.17373       11.02199        9.95531       -0.834
        9.30392       11.28107       10.86754        0.417
        9.98697       10.57896        9.71325        0.417
       27.58232       15.74879       17.71259       -0.834
       28.23480       15.15610       18.08572        0.417
       27.52099       16.46603       18.34349        0.417
       29.69245       14.08034       14.01273       -0.834
       28.81807       14.34843       14.29527        0.417
       29.54880       13.26978       13.52428        0.417
       14.29973       17.65902       11.55591       -0.834
       14.83994       18.44109       11.66891        0.417
       14.86987       17.03672       11.10434        0.417
        8.46207       18.91775       13.40694       -0.834
        9.03672       19.29329       12.73987        0.417
        7.87092       18.34426       12.91920        0.417