%Nproc=32
%Mem=120Gb
%chk=temp.chk
#p cam-b3lyp/6-31+G(d,p) nosymm charge Freq 

Calculation for S0 with freq for abs spect

0  1
 C         15.67001       17.52951       16.07990
 C         17.29263       15.73382       15.50664
 C         17.69386       15.59301       16.75284
 C         17.02629       16.30618       17.76575
 N         16.02668       17.20797       17.42578
 H         17.67125       15.12497       14.63812
 H         18.45954       14.96849       17.03646
 O         17.17321       16.07324       18.97937
 O         14.84122       18.33227       15.79511
 N         16.36929       16.69331       15.18925
 H         15.95504       16.77448       14.32139
 H         15.50575       17.72944       18.15479
 O         15.57802       20.94797       16.42851
 H         14.72327       20.63413       16.72371
 H         16.20077       20.30786       16.77301
 O         17.94437       18.86497       20.39860
 H         18.79273       18.48193       20.17542
 H         17.86084       18.72972       21.34250
 O         19.89458       19.91745       16.28864
 H         19.00500       19.88854       16.64083
 H         20.44433       19.58365       16.99757
 O         21.12312       14.80109       18.90711
 H         20.67427       15.60234       19.17686
 H         20.47324       14.10908       19.02962
 O         13.41810       18.21123       19.76213
 H         14.05978       17.50122       19.74301
 H         13.05185       18.22757       18.87792
 O         17.18769       14.68964       20.51827
 H         17.11735       13.74394       20.64840
 H         18.09493       14.89601       20.74311
 O         17.15806       11.94364       16.25096
 H         17.18376       11.24903       15.59286
 H         16.44128       11.69491       16.83456
 O         16.37339       19.58866       13.62415
 H         17.14046       19.02023       13.55537
 H         16.70179       20.38555       14.04051
 O         14.96206       15.70690       19.68537
 H         14.44836       14.92429       19.48567
 H         15.78220       15.37004       20.04610
 O         13.34469       19.57852       16.95814
 H         12.97807       18.78748       16.56308
 H         12.58222       20.11893       17.16509
 O         12.73194       17.57883       14.37826
 H         13.29336       18.34145       14.51772
 H         13.32961       16.83183       14.40990
 O         19.19416       16.10028       14.47788
 H         19.00201       15.25374       14.88122
 H         18.70648       16.08992       13.65429
 O         19.97540       17.19054       19.50803
 H         20.49700       17.91240       19.15719
 H         20.12661       17.22218       20.45268
 O         15.45513       20.55826       20.48295
 H         14.82731       20.06118       21.00734
 H         16.17609       19.94767       20.32925
 O         15.26161       13.57053       13.53612
 H         16.10595       13.52266       13.08776
 H         15.07859       14.50763       13.60377
 O         19.46367       18.84672       13.71364
 H         19.75226       19.43847       14.40846
 H         19.59945       17.97008       14.07323
 O         19.24508       13.62244       16.05709
 H         19.36604       13.55948       17.00453
 H         18.49285       13.05978       15.87327
 
       24.41674       11.63763       21.82402       -0.834
       24.32497       10.75608       21.46253        0.417
       24.06542       12.21332       21.14476        0.417
        5.50733       25.91785       19.38893       -0.834
        5.94237       26.46278       20.04469        0.417
        4.58249       25.93874       19.63482        0.417
       10.93878       11.44976       11.64434       -0.834
       10.04327       11.75214       11.49311        0.417
       11.36529       11.52634       10.79085        0.417
        3.85825       22.23289       16.53813       -0.834
        3.12848       22.57010       17.05769        0.417
        3.46222       21.97905       15.70449        0.417
       11.69934        8.63009       27.93173       -0.834
       10.96798        9.20819       27.71460        0.417
       12.40326        8.90209       27.34289        0.417
       15.96354       19.17877       23.88579       -0.834
       15.88028       20.12701       23.78506        0.417
       15.23340       18.81891       23.38218        0.417
       21.15760       20.24046        9.37767       -0.834
       21.12224       19.60780        8.66023        0.417
       20.52298       19.91504       10.01610        0.417
       21.09879       23.46092        7.61189       -0.834
       21.65651       23.50079        8.38880        0.417
       20.57510       24.26120        7.65108        0.417
       23.83117        9.31396        9.63424       -0.834
       23.01153        8.97671        9.99573        0.417
       23.92410        8.86729        8.79276        0.417
       28.89404       24.99910       22.07971       -0.834
       28.40270       25.72384       22.46644        0.417
       28.23845       24.49473       21.59800        0.417
       21.67230       12.20356       16.20251       -0.834
       22.35893       12.84855       16.37208        0.417
       20.89238       12.72651       16.01679        0.417
       13.04739       12.21539        6.32923       -0.834
       12.64311       12.92873        5.83533        0.417
       13.75015       11.89871        5.76171        0.417
       18.37759       26.79939       19.98319       -0.834
       19.32953       26.71324       19.93203        0.417
       18.07995       25.96360       20.34251        0.417
       11.90511       22.65663        6.73183       -0.834
       11.31783       22.53075        7.47715        0.417
       12.77696       22.72151        7.12157        0.417
       25.25526       15.81680        6.56781       -0.834
       25.08608       16.74115        6.75001        0.417
       26.18984       15.70503        6.74184        0.417
       11.15484        4.96395       10.21886       -0.834
       10.72669        5.77701       10.48689        0.417
       11.82176        5.23988        9.59012        0.417
       25.80114       23.38869        7.14458       -0.834
       25.52056       23.56925        8.04174        0.417
       26.30827       24.16017        6.89187        0.417
        4.21652       13.29886       22.95750       -0.834
        3.89035       14.15384       22.67666        0.417
        4.99146       13.14804       22.41625        0.417
        7.58859       21.45932       25.03890       -0.834
        6.70072       21.10447       25.08376        0.417
        7.53838       22.14858       24.37661        0.417
       10.03642        7.26513       11.15902       -0.834
       10.04424        8.09162       11.64181        0.417
        9.62101        6.64255       11.75574        0.417
       23.72039       17.59947       28.46996       -0.834
       23.99637       18.44226       28.83020        0.417
       22.76518       17.65293       28.43900        0.417
        3.73800       18.60103       13.06464       -0.834
        4.44793       18.18192       12.57824        0.417
        4.13462       18.85324       13.89849        0.417
       16.26631       10.01303        9.69315       -0.834
       15.90553        9.46512       10.39020        0.417
       17.21142       10.00242        9.84442        0.417
       17.70228       17.95319       29.69115       -0.834
       17.86129       17.01926       29.55433        0.417
       17.04745       18.18418       29.03230        0.417
       30.17407       13.93009       13.85164       -0.834
       29.59521       14.07750       13.10370        0.417
       29.76595       14.41356       14.56992        0.417
       31.68585       13.65300       18.97802       -0.834
       31.02830       14.30998       19.20657        0.417
       31.37502       12.84809       19.39243        0.417
       10.74217       21.22885       21.26982       -0.834
        9.79430       21.31315       21.37311        0.417
       10.85085       20.65667       20.51020        0.417
       19.13643       20.42340       30.29908       -0.834
       18.66056       19.62862       30.05802        0.417
       18.61909       20.80750       31.00693        0.417
        6.00700        6.55275       16.37894       -0.834
        6.82383        6.20616       16.73798        0.417
        6.21363        6.75795       15.46712        0.417
       24.01893       11.85167       27.13504       -0.834
       23.80647       12.62698       26.61544        0.417
       23.34976       11.83048       27.81914        0.417
       15.88632       26.41766        5.22619       -0.834
       15.82210       25.48110        5.03920        0.417
       16.60289       26.72469        4.67077        0.417
       10.04240       18.29513       14.66028       -0.834
       10.82938       18.01878       14.19068        0.417
       10.11269       19.24864       14.70615        0.417
       10.24811        9.34326       19.34403       -0.834
        9.71622        8.60074       19.05770        0.417
       10.39320        9.85546       18.54853        0.417
       14.71236       18.67210       31.18741       -0.834
       15.17846       18.13276       31.82623        0.417
       14.78953       19.56449       31.52493        0.417
        3.24966       15.79119       22.41426       -0.834
        2.47803       15.73725       22.97809        0.417
        3.00279       16.41151       21.72833        0.417
       16.46446        5.26514       19.56961       -0.834
       16.81442        5.13063       18.68889        0.417
       15.52547        5.39565       19.43740        0.417
       25.51918        5.48384       15.04685       -0.834
       26.30915        6.02250       15.00191        0.417
       24.96422        5.92491       15.69005        0.417
       11.33754       23.86436       25.86306       -0.834
       11.18821       23.54731       24.97232        0.417
       10.70546       23.38407       26.39788        0.417
       21.77628       24.64055       14.28795       -0.834
       22.51621       24.99073       14.78404        0.417
       21.56563       23.81408       14.72247        0.417
       10.67633       14.84670        7.13169       -0.834
       10.13959       15.50460        7.57363        0.417
       11.43886       14.73790        7.69997        0.417
        6.15949       16.09275       21.59797       -0.834
        6.08434       17.04699       21.60150        0.417
        6.83742       15.90301       22.24654        0.417
       20.67182       12.87522        8.49374       -0.834
       21.45709       12.74781        9.02604        0.417
       20.54951       12.03986        8.04268        0.417
       13.79579        4.71621       15.44669       -0.834
       13.11066        5.32594       15.72065        0.417
       13.38260        3.85406       15.49364        0.417
       25.02945        7.48074       24.23619       -0.834
       24.08841        7.55553       24.07778        0.417
       25.26215        8.29235       24.68715        0.417
       23.06351        8.04956       18.99984       -0.834
       23.53655        7.33506       18.57329        0.417
       23.29175        8.82670       18.48975        0.417
       16.41627        8.94159       19.36043       -0.834
       17.07487        8.44748       18.87224        0.417
       16.11289        8.33487       20.03577        0.417
       16.06837       14.72731       25.48256       -0.834
       16.13609       15.51504       26.02212        0.417
       15.85556       15.05303       24.60800        0.417
       26.43710        9.75677       19.15071       -0.834
       25.56078        9.74815       19.53570        0.417
       26.98652       10.17444       19.81397        0.417
       27.98331       13.30564       21.05403       -0.834
       27.69280       12.47055       21.42071        0.417
       27.17768       13.73382       20.76444        0.417
       26.07333       25.84301       11.60655       -0.834
       25.97113       26.66276       12.09008        0.417
       25.75031       25.16947       12.20507        0.417
       17.70599       20.03973       26.90124       -0.834
       16.85316       20.12542       27.32736        0.417
       18.23603       20.73985       27.28218        0.417
        5.54266       14.56587       17.83196       -0.834
        6.10203       15.33827       17.91411        0.417
        4.65637       14.89421       17.98334        0.417
       10.14930       21.28664       15.31597       -0.834
        9.54567       21.33136       16.05750        0.417
       10.92722       21.76002       15.61089        0.417
       12.71370       10.21755       16.63885       -0.834
       11.78732       10.45434       16.68337        0.417
       13.07977       10.80407       15.97687        0.417
       24.92643       23.83827       15.40958       -0.834
       25.63680       24.45680       15.23919        0.417
       24.72197       23.95722       16.33710        0.417
       15.17380       16.91053        8.55863       -0.834
       15.60130       17.70805        8.24650        0.417
       15.46933       16.81858        9.46441        0.417
        3.95950        8.54849       15.92631       -0.834
        3.94997        8.02186       15.12706        0.417
        4.56597        8.09051       16.50826        0.417
       19.15675       22.83263       24.78724       -0.834
       19.22173       22.18317       25.48740        0.417
       18.21976       23.01430       24.71462        0.417
       16.40328       22.85615       14.69769       -0.834
       16.08873       22.29030       15.40275        0.417
       17.30584       22.57446       14.54847        0.417
        9.62154       29.35353       21.07659       -0.834
        9.83001       28.42791       20.95015        0.417
       10.42331       29.73317       21.43614        0.417
        6.63619       16.67056        4.81548       -0.834
        7.27791       17.28151        5.17766        0.417
        7.08495       15.82508        4.81232        0.417
       18.30789       30.35881       18.51410       -0.834
       18.08361       29.74137       17.81790        0.417
       19.24945       30.24397       18.64258        0.417
       23.32007       10.51240       17.40286       -0.834
       24.05313       10.29480       16.82710        0.417
       22.66553       10.90014       16.82194        0.417
       24.00371       22.79539        4.97266       -0.834
       24.64144       22.78136        5.68634        0.417
       24.11247       21.95006        4.53698        0.417
       18.38750       23.33213       17.75826       -0.834
       17.46115       23.19639       17.95742        0.417
       18.38692       23.82090       16.93526        0.417
        6.66310       17.00700       26.16920       -0.834
        7.57486       17.26435       26.03244        0.417
        6.15330       17.68446       25.72492        0.417
       25.51267       16.50395       22.09603       -0.834
       25.35962       15.91972       21.35341        0.417
       26.19565       17.10257       21.79366        0.417
       25.18725       26.41764       25.53262       -0.834
       24.71150       25.61691       25.75333        0.417
       25.74929       26.16838       24.79899        0.417
       16.00599       21.27737       30.04376       -0.834
       15.69547       22.17340       29.91359        0.417
       15.74840       21.06196       30.94013        0.417
       16.09126       27.62959       23.97442       -0.834
       16.44181       28.16620       23.26351        0.417
       15.90417       28.25325       24.67604        0.417
       14.82756       31.37863       15.14323       -0.834
       15.26234       31.79195       15.88913        0.417
       14.79530       32.06305       14.47482        0.417
       15.34077       22.06172       23.92763       -0.834
       14.43619       22.19737       23.64557        0.417
       15.39681       22.50366       24.77485        0.417
       28.77579       22.00188        8.64652       -0.834
       28.29182       21.42688        9.23930        0.417
       28.90356       22.80851        9.14578        0.417
       28.44630       16.85162       22.20133       -0.834
       29.14350       16.77278       21.55022        0.417
       28.12842       17.74935       22.10504        0.417
       17.80228        9.46425       22.65961       -0.834
       18.37295       10.03524       22.14528        0.417
       17.00412        9.97646       22.78930        0.417
       13.45864        8.95934       13.59823       -0.834
       13.03939        9.07663       14.45069        0.417
       13.54862        9.84676       13.25091        0.417
       19.23141       17.57774       26.18007       -0.834
       18.57350       18.18972       26.51002        0.417
       19.87812       18.13267       25.74412        0.417
       26.61764       21.58816       26.41562       -0.834
       26.66537       21.66975       25.46310        0.417
       27.48316       21.85742       26.72322        0.417
       16.88841        3.26389       11.66129       -0.834
       16.21563        3.28086       10.98062        0.417
       16.67665        2.49380       12.18888        0.417
        8.29788       14.41916        4.88002       -0.834
        8.93185       14.04568        5.49225        0.417
        8.78791       14.53060        4.06535        0.417
       10.39466        3.34714       13.48898       -0.834
       11.26097        3.39893       13.08518        0.417
       10.56603        3.07535       14.39064        0.417
       25.04578       20.14647       23.62989       -0.834
       25.45422       20.99594       23.46313        0.417
       24.65069       20.23626       24.49712        0.417
        9.03269       16.66260        8.56933       -0.834
        9.12224       17.50698        9.01118        0.417
        8.11154       16.62279        8.31219        0.417
       22.59733       16.29504       17.38408       -0.834
       22.16055       15.80145       18.07821        0.417
       22.53998       15.72883       16.61443        0.417
       28.65707       17.70995       25.24386       -0.834
       27.74540       17.79924       25.52158        0.417
       28.60973       17.23553       24.41385        0.417
       13.30574       23.99877        4.48270       -0.834
       12.85525       23.78862        5.30070        0.417
       14.16359       23.58266        4.56741        0.417
        9.64637       23.06580       13.36196       -0.834
        9.24531       22.26295       13.02907        0.417
       10.18704       22.77701       14.09714        0.417
        3.83362       11.24822       16.61834       -0.834
        3.97086       10.40466       16.18729        0.417
        3.08643       11.63305       16.16026        0.417
       12.03002       14.26227        4.76463       -0.834
       11.55337       14.50727        5.55773        0.417
       12.31581       15.09521        4.38944        0.417
       24.47231       12.21546       13.82799       -0.834
       23.65077       12.48642       13.41824        0.417
       25.15288       12.53664       13.23647        0.417
        1.91262       17.93981       18.79089       -0.834
        2.34883       18.58863       18.23864        0.417
        2.59194       17.29385       18.98452        0.417
       15.46860       11.01614        5.57176       -0.834
       15.45395       10.58088        4.71938        0.417
       15.75691       10.33794        6.18262        0.417
       12.45348       24.93043       15.29283       -0.834
       11.88158       25.55192       14.84236        0.417
       13.33989       25.21795       15.07411        0.417
        8.76603       27.79385       11.57244       -0.834
        9.06484       26.94841       11.90739        0.417
        8.66942       27.65798       10.62987        0.417
        9.19505        5.94004       13.44202       -0.834
        9.73383        6.31073       14.14097        0.417
        9.65021        5.13711       13.18834        0.417
       26.26140       21.61314       14.64351       -0.834
       26.00588       20.89630       15.22409        0.417
       25.77345       22.37012       14.96775        0.417
       21.22474       28.33261       12.42856       -0.834
       20.62294       28.65438       11.75735        0.417
       21.94369       27.93640       11.93626        0.417
       15.87688       16.95851       11.35535       -0.834
       15.11166       16.38407       11.32919        0.417
       15.51859       17.82743       11.53659        0.417
       21.45491       19.73392       28.57486       -0.834
       21.92470       20.56639       28.62501        0.417
       20.55078       19.95474       28.79848        0.417
       24.06554       25.38208        9.61704       -0.834
       24.07392       24.45112        9.39464        0.417
       24.66325       25.45650       10.36097        0.417
        8.06165       21.68876       21.52776       -0.834
        7.76211       22.14844       22.31211        0.417
        7.43215       21.93516       20.85008        0.417
        9.98463       18.66692        4.79180       -0.834
        9.46607       18.53047        5.58471        0.417
        9.75851       19.55221        4.50655        0.417
       21.68384       13.60353        4.34532       -0.834
       22.57878       13.92849        4.44386        0.417
       21.78783       12.68129        4.11103        0.417
       23.41780       12.73692       24.30468       -0.834
       23.99580       12.29642       23.68170        0.417
       22.55473       12.35644       24.14169        0.417
       28.71259       24.03219       13.88890       -0.834
       29.12110       24.20138       13.03994        0.417
       28.63061       23.07940       13.93015        0.417
       18.43447       28.68071       16.02686       -0.834
       19.03854       27.98166       15.77653        0.417
       17.60906       28.44840       15.60144        0.417
       26.23525       19.20787       16.25076       -0.834
       26.27730       18.25184       16.22886        0.417
       27.07978       19.47701       16.61210        0.417
        7.42980       17.33731       15.61143       -0.834
        7.06360       16.65348       15.05062        0.417
        8.35551       17.37481       15.37085        0.417
       17.77626       15.62821        1.63298       -0.834
       16.93113       15.21125        1.80075        0.417
       17.87716       16.26079        2.34425        0.417
       13.76860        5.64213       19.22171       -0.834
       13.49778        6.25544       18.53852        0.417
       13.50231        6.06145       20.03993        0.417
       13.98919       11.22532       11.95153       -0.834
       14.27687       11.96726       12.48350        0.417
       14.02820       11.54650       11.05066        0.417
       27.79915       14.63766       23.85079       -0.834
       28.48096       13.97632       23.73249        0.417
       27.82678       15.15721       23.04734        0.417
        9.53466       15.85668       27.82990       -0.834
        8.82814       16.46541       28.04553        0.417
        9.09016       15.09582       27.45608        0.417
       18.33978       16.22105       10.89787       -0.834
       17.43719       16.47205       11.09425        0.417
       18.25870       15.52147       10.24960        0.417
       11.16688       15.05643       15.25789       -0.834
       11.17777       15.90655       14.81811        0.417
       11.76102       14.51159       14.74176        0.417
       19.28066       11.42838       13.04143       -0.834
       20.10812       11.76522       12.69780        0.417
       18.62743       12.07260       12.76845        0.417
       13.39971       16.54292       24.69098       -0.834
       13.72158       16.11908       23.89537        0.417
       14.18857       16.72611       25.20126        0.417
       13.43578       16.52910        4.22208       -0.834
       13.08744       16.90664        3.41440        0.417
       13.27563       17.19769        4.88810        0.417
       24.66529       14.28196       12.00370       -0.834
       23.79511       14.35301       11.61130        0.417
       25.26949       14.41783       11.27383        0.417
        8.24943       20.14427       28.09208       -0.834
        8.34455       19.89844       27.17189        0.417
        8.69117       19.44519       28.57414        0.417
        3.44887       14.05524       11.38325       -0.834
        3.82409       13.29745       11.83181        0.417
        3.77336       13.98752       10.48528        0.417
       24.21836       18.70565       20.17854       -0.834
       25.05881       18.98110       20.54460        0.417
       24.35681       17.79493       19.91845        0.417
        4.88466       19.31168        7.98677       -0.834
        5.16316       19.40224        8.89807        0.417
        3.94117       19.15869        8.03824        0.417
       19.60193       26.79647       14.10386       -0.834
       20.23235       27.12904       13.46495        0.417
       20.07036       26.09906       14.56258        0.417
       13.46034       15.70937       11.51098       -0.834
       13.22458       14.91922       11.99710        0.417
       12.65236       16.22161       11.47919        0.417
       15.05702       15.53488       22.83844       -0.834
       15.00270       14.58102       22.89701        0.417
       15.11883       15.71458       21.90029        0.417
       21.80407        4.78813       22.87058       -0.834
       22.35240        5.22155       23.52457        0.417
       21.61117        5.47121       22.22837        0.417
       11.51219       27.99624        9.41263       -0.834
       11.74765       28.81782        9.84367        0.417
       12.16139       27.36634        9.72568        0.417
        7.08856        9.88597       18.84682       -0.834
        6.36430       10.50908       18.78841        0.417
        7.30790        9.68693       17.93660        0.417
       18.50484       27.83798       11.39057       -0.834
       19.12995       27.45086       12.00344        0.417
       17.72162       27.29359       11.47074        0.417
       19.56666       15.73917       24.14481       -0.834
       19.19936       16.14674       24.92916        0.417
       20.49411       15.97522       24.16360        0.417
       14.08666       24.39279       25.49731       -0.834
       13.92635       24.71351       24.60980        0.417
       13.25277       24.00857       25.76793        0.417
       18.77532        6.22113       20.63557       -0.834
       18.15136        6.05419       19.92914        0.417
       19.12484        5.35774       20.85606        0.417
       25.35887       27.68366       18.37732       -0.834
       26.13101       27.14152       18.21570        0.417
       25.68915       28.42765       18.88093        0.417
       19.25816       12.70291       18.64968       -0.834
       19.97692       12.17938       19.00397        0.417
       18.46631       12.27497       18.97538        0.417
       22.31544       20.21722       21.56782       -0.834
       22.74742       20.54352       20.77842        0.417
       22.96670       19.65022       21.98085        0.417
       20.53450       22.47182       22.38509       -0.834
       21.07414       21.70932       22.59391        0.417
       20.04145       22.64384       23.18730        0.417
       19.69091       14.70381       21.55841       -0.834
       20.47791       15.20504       21.34482        0.417
       19.68712       14.65891       22.51455        0.417
       11.18296       14.63298       19.25525       -0.834
       11.62970       15.45644       19.05889        0.417
       10.31112       14.89709       19.54914        0.417
       13.08678       14.39638       29.60280       -0.834
       13.94564       13.97603       29.64620        0.417
       13.27374       15.29780       29.34065        0.417
       15.10299       12.76895       21.91385       -0.834
       15.27703       11.83854       22.05632        0.417
       14.54856       12.79271       21.13393        0.417
       13.44488       13.07906       19.32320       -0.834
       12.58912       13.50394       19.26495        0.417
       13.40368       12.36778       18.68398        0.417
        6.80190       16.86084       18.28065       -0.834
        6.86399       17.68537       18.76285        0.417
        7.14944       17.06395       17.41221        0.417
       18.85861       13.83398        4.22186       -0.834
       19.81060       13.81411        4.31960        0.417
       18.52790       13.38953        5.00245        0.417
       27.01677       24.02456       20.31547       -0.834
       26.57304       24.07268       21.16224        0.417
       27.05575       23.08880       20.11780        0.417
        5.91294       22.05373       13.07056       -0.834
        5.02612       21.96675       13.42014        0.417
        5.80011       22.52312       12.24402        0.417
       19.55405       30.03068       10.55122       -0.834
       18.97371       29.27614       10.65172        0.417
       19.17969       30.52602        9.82272        0.417
       13.37474        8.94429       25.80495       -0.834
       14.30230        9.16331       25.71611        0.417
       13.35881        7.98946       25.87034        0.417
       27.26992       10.38233       16.59441       -0.834
       26.53065        9.92849       16.18976        0.417
       27.07848       10.36429       17.53209        0.417
       12.54995        7.63505       17.37417       -0.834
       12.37451        8.38595       16.80707        0.417
       11.71165        7.17658       17.43152        0.417
        8.15605       23.19256        7.80157       -0.834
        7.23451       23.10414        8.04482        0.417