%Nproc=32
%Mem=120Gb
%chk=temp.chk
#p cam-b3lyp/6-31+G(d,p) nosymm charge Freq 

Calculation for S0 with freq for abs spect

0  1
 C         15.67001       17.52951       16.07990
 C         17.29263       15.73382       15.50664
 C         17.69386       15.59301       16.75284
 C         17.02629       16.30618       17.76575
 N         16.02668       17.20797       17.42578
 H         17.67125       15.12497       14.63812
 H         18.45954       14.96849       17.03646
 O         17.17321       16.07324       18.97937
 O         14.84122       18.33227       15.79511
 N         16.36929       16.69331       15.18925
 H         15.95504       16.77448       14.32139
 H         15.50575       17.72944       18.15479
 O         16.23789       21.54230       16.81084
 H         16.89555       21.35929       17.48182
 H         16.05797       20.69070       16.41255
 O         13.72346       19.79163       17.71708
 H         13.16741       19.53041       16.98305
 H         14.06290       20.65100       17.46706
 O         16.44096       14.89504       21.11277
 H         17.36668       14.80994       21.34090
 H         16.13479       15.64214       21.62690
 O         19.14630       12.64299       16.70015
 H         18.67740       12.81472       15.88353
 H         19.27372       11.69435       16.70879
 O         18.05142       13.30364       14.19490
 H         18.26772       14.12508       13.75367
 H         17.60174       12.78434       13.52831
 O         16.05862       18.79863       19.92678
 H         15.63130       18.66942       19.08006
 H         16.81810       19.34736       19.73105
 O         20.62591       17.68190       13.28395
 H         20.95286       17.66644       14.18345
 H         19.83781       18.22367       13.32435
 O         13.95554       16.44429       20.30422
 H         14.52609       15.78924       19.90220
 H         14.55640       17.07048       20.70806
 O         18.11934       20.34036       19.29085
 H         18.15577       20.93898       20.03688
 H         18.86788       20.58767       18.74794
 O         12.65159       16.80351       17.74255
 H         12.74800       15.85121       17.73441
 H         13.06041       17.07911       18.56301
 O         19.19984       13.75582       19.09270
 H         19.27032       13.35765       18.22510
 H         19.63257       13.13414       19.67793
 O         18.08455       18.98925       12.79732
 H         17.13829       19.01140       12.93991
 H         18.19808       19.28435       11.89385
 O         21.17413       18.38759       15.91099
 H         21.03915       18.19653       16.83917
 H         22.05214       18.76650       15.86918
 O         15.14791       12.04748       18.13567
 H         14.95262       12.98116       18.05601
 H         15.97301       12.01533       18.61983
 O         14.20955       16.09744       12.48773
 H         14.71938       16.90753       12.49635
 H         13.36952       16.33839       12.87829
 O         15.34395       18.69364       13.13342
 H         15.26870       18.98022       14.04361
 H         14.48700       18.88210       12.75085
 
       17.33810        4.34549        8.08492       -0.834
       17.77595        4.93660        8.69738        0.417
       17.19746        3.54204        8.58583        0.417
        7.73784       26.62606       18.33545       -0.834
        7.07174       26.73008       17.65595        0.417
        8.40595       26.07076       17.93358        0.417
       23.37535       30.76196       16.29385       -0.834
       22.73360       30.76958       15.58369        0.417
       23.59008       29.83684       16.41334        0.417
       18.80678       22.11281        8.62973       -0.834
       19.69587       22.15694        8.27787        0.417
       18.77449       22.80695        9.28804        0.417
        5.77228       21.58800        9.86390       -0.834
        5.95475       21.05352       10.63673        0.417
        5.57526       22.45681       10.21404        0.417
       17.05974       15.06242        4.04699       -0.834
       16.19586       15.47127        4.09961        0.417
       16.88855       14.18180        3.71317        0.417
       10.07653       29.71225       19.83470       -0.834
        9.98098       30.22870       19.03446        0.417
       11.01724       29.54973       19.90455        0.417
       19.42084       19.41428       21.69841       -0.834
       19.54312       20.35430       21.83123        0.417
       20.29923       19.04360       21.78367        0.417
       17.82916       23.64361       23.92981       -0.834
       17.75936       23.46546       22.99193        0.417
       17.03062       24.12670       24.14240        0.417
       11.12421       24.40863       27.47655       -0.834
       10.77930       25.29894       27.40860        0.417
       10.46748       23.86315       27.04367        0.417
       23.42274       13.56421       19.01517       -0.834
       24.36708       13.71414       18.97075        0.417
       23.33123       12.61145       19.02553        0.417
        1.74749       14.10140       16.36582       -0.834
        1.28538       13.26598       16.29686        0.417
        2.42075       14.06000       15.68667        0.417
        6.42014       20.19933        5.79809       -0.834
        6.27918       19.37542        5.33169        0.417
        5.99949       20.06901        6.64797        0.417
       11.78115        8.45353       17.07432       -0.834
       11.11856        7.93322       17.52874        0.417
       12.55083        8.41043       17.64174        0.417
        8.19701        8.20718       24.89735       -0.834
        8.24852        8.63568       25.75173        0.417
        9.09826        8.20566       24.57491        0.417
       27.30461       19.02498       21.37411       -0.834
       27.35066       18.18917       20.90986        0.417
       28.10435       19.48527       21.11956        0.417
       19.52078       14.86848       22.24480       -0.834
       20.18496       14.31173       21.83843        0.417
       19.49125       14.58001       23.15702        0.417
       26.44467       11.69535       24.59770       -0.834
       26.79511       11.11086       25.26986        0.417
       25.81112       12.24242       25.06198        0.417
        6.60115       16.77016       21.46198       -0.834
        6.66498       15.82219       21.57823        0.417
        5.70417       16.98361       21.71907        0.417
       20.10053       23.67048       14.65738       -0.834
       19.59356       22.94067       14.30159        0.417
       21.01329       23.40073       14.55573        0.417
       25.53808       23.68763        8.42699       -0.834
       25.58403       23.99899        9.33096        0.417
       24.83479       24.20245        8.03129        0.417
        9.17921        4.08887       19.67525       -0.834
        9.01981        4.87084       20.20378        0.417
        8.33029        3.64836       19.63633        0.417
       22.17192        5.41668       21.00440       -0.834
       22.91991        5.76302       20.51780        0.417
       22.56089        4.85348       21.67353        0.417
       28.36389       21.55602       16.31862       -0.834
       28.19313       21.49932       15.37848        0.417
       29.26733       21.86626       16.38016        0.417
       22.07091       16.88005       18.44257       -0.834
       21.77728       16.04396       18.08068        0.417
       21.46140       17.05892       19.15862        0.417
        9.84147       12.39177       22.48937       -0.834
       10.65718       12.35030       22.98850        0.417
       10.12000       12.38734       21.57360        0.417
       29.00056       21.30740       12.74228       -0.834
       28.22924       21.06544       12.22968        0.417
       29.30359       20.48332       13.12345        0.417
        7.58655       10.84976       22.87554       -0.834
        8.42700       11.30665       22.90902        0.417
        6.96749       11.50877       22.56138        0.417
       20.67124       12.73926        5.66145       -0.834
       20.60814       13.13223        4.79092        0.417
       21.57107       12.91230        5.93821        0.417
       13.84770       16.04637        4.26922       -0.834
       13.89685       16.20296        5.21224        0.417
       14.29749       16.79520        3.87784        0.417
       28.14054       17.61716        7.47964       -0.834
       28.19623       17.14748        6.64745        0.417
       28.25917       16.94008        8.14576        0.417
        3.04896       13.77986       13.80858       -0.834
        3.27091       14.38909       13.10444        0.417
        2.21327       13.39764       13.54069        0.417
       17.42135       12.43366        3.50987       -0.834
       17.85395       11.94440        4.20966        0.417
       17.95691       12.26724        2.73417        0.417
       15.15078       25.80563       15.56838       -0.834
       15.42280       25.97256       14.66596        0.417
       15.90302       26.06912       16.09842        0.417
       26.71420        9.79905       14.11266       -0.834
       27.12159       10.59957       14.44347        0.417
       27.12408        9.65604       13.25956        0.417
       25.73935       14.34830       11.80974       -0.834
       26.41531       13.79903       11.41272        0.417
       24.93575       13.83418       11.73141        0.417
       27.58175       16.98226       15.76770       -0.834
       27.55826       17.79808       15.26758        0.417
       27.30608       17.23321       16.64932        0.417
       16.12165        8.45299       20.03586       -0.834
       16.67216        9.19136       20.29660        0.417
       15.87592        8.03385       20.86058        0.417
       29.79650       18.67331       20.00507       -0.834
       30.11200       19.53067       19.71938        0.417
       29.81075       18.13618       19.21291        0.417
       12.42484       19.68126       20.57273       -0.834
       13.14098       19.57149       19.94716        0.417
       12.63651       20.48911       21.04050        0.417
       22.44678       22.73985       13.30698       -0.834
       22.62575       22.16173       12.56538        0.417
       23.13190       22.53363       13.94284        0.417
       24.05968       28.26396       16.59508       -0.834
       24.55015       27.46824       16.38895        0.417
       23.32972       27.96259       17.13597        0.417
        5.09119       13.51190       24.33596       -0.834
        4.62292       12.70915       24.56521        0.417
        4.44316       14.20765       24.44653        0.417
       13.09312        6.27372       24.32569       -0.834
       13.93296        6.22256       24.78208        0.417
       13.09513        5.52108       23.73429        0.417
        7.00257       11.24330       26.62318       -0.834
        6.51423       12.02864       26.37619        0.417
        6.35082       10.54233       26.61300        0.417
       13.96103        9.33530       11.08099       -0.834
       13.64728        8.47508       11.35996        0.417
       14.16916        9.79094       11.89665        0.417
       29.25160       21.60836       19.29578       -0.834
       29.60523       21.90604       18.45760        0.417
       28.31863       21.47461       19.12872        0.417
       16.83246       11.03927       29.67687       -0.834
       16.07996       10.66845       30.13781        0.417
       17.25163       10.28752       29.25806        0.417
       10.92999        7.99881       24.15924       -0.834
       11.11956        8.12362       23.22934        0.417
       11.66963        7.48818       24.48852        0.417
       15.45878       25.73935       12.68278       -0.834
       15.77675       24.84273       12.78860        0.417
       14.60994       25.64355       12.25089        0.417
       27.31925       20.88215       23.70885       -0.834
       27.24613       20.33745       22.92515        0.417
       27.74597       21.68339       23.40526        0.417
       20.59941       15.83804        7.40873       -0.834
       20.41149       16.62666        7.91763        0.417
       19.77175       15.35734        7.39661        0.417
        7.61443       28.05895       15.01642       -0.834
        8.27966       27.38663       14.86917        0.417
        6.95408       27.62834       15.55932        0.417
       11.57420       18.63547       16.07282       -0.834
       10.70129       18.97434       16.27138        0.417
       11.81272       18.12038       16.84354        0.417
       19.98168        4.76409       13.51169       -0.834
       19.94622        4.38064       12.63537        0.417
       20.35627        5.63470       13.37772        0.417
       13.26097       22.22258       12.43685       -0.834
       12.81060       21.85200       13.19584        0.417
       13.12959       21.57800       11.74151        0.417
       23.21991        7.00736       23.79755       -0.834
       23.37303        6.06249       23.79478        0.417
       24.08186        7.38968       23.96217        0.417
       20.31675       26.41430       27.11331       -0.834
       20.24005       26.25704       28.05439        0.417
       20.79433       25.65417       26.78112        0.417
       18.82121        3.97549       15.98447       -0.834
       19.35919        4.31829       15.27082        0.417
       18.90837        4.62366       16.68341        0.417
       19.47678       29.57300       20.53883       -0.834
       19.31348       30.01083       19.70344        0.417
       18.96783       28.76384       20.48920        0.417
       23.18553       10.52624       24.05313       -0.834
       23.16642       11.29448       23.48244        0.417
       23.98794       10.06533       23.80832        0.417
       18.59057       10.43944        8.56605       -0.834
       17.87686        9.81896        8.41819        0.417
       18.32917       10.92370        9.34924        0.417
        5.07169       12.78205       17.87617       -0.834
        5.73919       12.70065       18.55738        0.417
        4.30318       12.34195       18.23941        0.417
       10.76592       16.07160        7.60993       -0.834
       11.03230       16.42711        6.76206        0.417
       11.27695       15.26776        7.70436        0.417
        9.70938       20.64928       12.93203       -0.834
       10.03397       20.24559       12.12710        0.417
       10.49969       20.89864       13.41105        0.417
        8.41578       13.17951       15.61953       -0.834
        7.58401       13.15169       15.14666        0.417
        9.02545       12.69688       15.06130        0.417
       26.71415        9.02569       21.04268       -0.834
       26.33521        8.68004       20.23450        0.417
       27.03660        9.89478       20.80403        0.417
       22.47260       24.82506       27.64434       -0.834
       22.57952       23.88522       27.49770        0.417
       23.18284       25.05692       28.24271        0.417
       21.61260       27.85423       11.40898       -0.834
       22.28975       28.16197       12.01146        0.417
       21.33402       28.64035       10.93925        0.417
       20.85187        9.71805       17.69916       -0.834
       20.49694        9.43188       18.54080        0.417
       21.71254       10.07892       17.91187        0.417
       14.47289       12.88309       26.16116       -0.834
       14.40344       13.56354       25.49154        0.417
       13.78247       13.09368       26.78982        0.417
       18.00048        7.32777        9.24923       -0.834
       17.87682        7.40764       10.19505        0.417
       18.84805        6.89332        9.15386        0.417
       13.97057       29.05620       20.80049       -0.834
       14.41310       29.65024       20.19426        0.417
       13.24264       29.56949       21.15102        0.417
       13.53379       26.75378        7.58660       -0.834
       12.79218       27.27682        7.89101        0.417
       14.02124       26.54235        8.38279        0.417
       17.03335        9.39780        4.35965       -0.834
       16.94197        8.71326        5.02244        0.417
       17.64480       10.02518        4.74534        0.417
       17.97693       19.70579        5.82533       -0.834
       18.24202       20.59593        6.05689        0.417
       18.51144       19.14286        6.38537        0.417
       18.88652       13.65945        7.72789       -0.834
       18.86828       13.74194        8.68136        0.417
       19.65411       13.11640        7.54864        0.417
        9.49006       11.43482       25.25108       -0.834
        9.37655       11.51065       24.30367        0.417
        8.62152       11.20161       25.57894        0.417
       21.38299       11.90140        9.79783       -0.834
       21.25816       11.28028        9.08029        0.417
       20.64801       11.73661       10.38848        0.417
       25.06784       24.73088       11.02693       -0.834
       24.12706       24.89418       10.95981        0.417
       25.44711       25.58834       11.21965        0.417
       23.53827       12.85949       11.76426       -0.834
       22.92091       13.10990       11.07695        0.417
       23.05064       12.97741       12.57946        0.417
       16.53924       28.31982       12.85564       -0.834
       17.46101       28.16346       13.06086        0.417
       16.16263       27.44490       12.76126        0.417
       16.93073       15.65594        6.62401       -0.834
       17.16425       15.57298        5.69945        0.417
       17.16443       14.81056        7.00735        0.417
       11.42557       25.31630        6.44270       -0.834
       11.29419       24.37557        6.32440        0.417
       12.34195       25.46206        6.20766        0.417
        9.98077       12.12190       27.99755       -0.834
       10.12973       11.59357       27.21339        0.417
        9.04240       12.03966       28.16765        0.417
       14.69645        8.16406       22.45490       -0.834
       14.57544        7.29665       22.84115        0.417
       13.85572        8.36258       22.04259        0.417
        3.71600       10.42702       14.83799       -0.834
        4.43384       10.97552       15.15433        0.417
        3.28155       10.11824       15.63307        0.417
       22.15989       18.92433       23.18087       -0.834
       23.02937       18.66830       22.87316        0.417
       22.24644       19.85206       23.40007        0.417
       11.28851       27.15675       17.80941       -0.834
       10.53347       26.59780       17.62578        0.417
       11.04609       28.01190       17.45419        0.417
       22.97933       21.51281       23.89584       -0.834
       23.75576       21.25269       24.39154        0.417
       22.38852       21.88263       24.55190        0.417
       21.14561       24.39360        5.66505       -0.834
       20.80640       23.95445        4.88511        0.417
       21.81162       24.99474        5.33145        0.417
       14.65029       12.49379        4.17351       -0.834
       14.88707       12.44116        5.09947        0.417
       15.41303       12.14702        3.71068        0.417
       10.28828       22.25757       22.78938       -0.834
       10.50115       23.05978       22.31253        0.417
       11.12429       21.79890       22.87270        0.417
       19.16947       31.01396       17.56243       -0.834
       19.88308       31.39611       18.07325        0.417
       18.66479       31.76678       17.25456        0.417
       24.77343       16.01876       22.73104       -0.834
       24.05270       15.88405       22.11571        0.417
       25.56331       15.94367       22.19562        0.417
       21.68266       14.45740       16.75524       -0.834
       21.01946       14.04043       17.30528        0.417
       22.51681       14.15213       17.11195        0.417
       12.44917        7.18754       11.98493       -0.834
       11.95976        7.15904       12.80706        0.417
       12.13970        6.42575       11.49488        0.417
        4.68104       20.80403       24.07104       -0.834
        5.09428       21.10001       24.88213        0.417
        5.19024       21.22125       23.37614        0.417
        8.60486       20.27818       25.13136       -0.834
        9.55409       20.23512       25.24685        0.417
        8.44580       19.85021       24.29007        0.417
       25.90307       27.08972       12.56570       -0.834
       26.44958       27.59912       11.96731        0.417
       26.50615       26.79165       13.24664        0.417
       29.66004       18.48478       17.24489       -0.834
       29.49514       19.00273       16.45700        0.417
       29.62650       17.57604       16.94607        0.417
       26.12930       19.11066       14.23998       -0.834
       26.12110       19.86332       13.64865        0.417
       26.28589       18.35855       13.66898        0.417
       21.74928        9.47454        8.04299       -0.834
       20.80772        9.30426        8.01657        0.417
       22.00244        9.56621        7.12443        0.417
       13.71599       13.18626       11.90973       -0.834
       12.81449       13.37844       11.65167        0.417
       13.96557       13.91855       12.47337        0.417
       22.36348       25.23151       10.89947       -0.834
       22.14132       26.14483       11.08038        0.417
       21.51799       24.79475       10.79641        0.417
       24.17989        9.65038       16.39025       -0.834
       23.56462        9.21169       15.80269        0.417
       25.04294        9.44503       16.03079        0.417
       19.47805       23.74716       11.07724       -0.834
       18.94636       23.83218       11.86863        0.417
       19.34208       24.56987       10.60724        0.417
        6.56866       16.21092        5.80551       -0.834
        6.48311       16.56879        6.68917        0.417
        6.24609       16.90659        5.23260        0.417
       18.12412       12.57206       31.46530       -0.834
       17.73878       12.12398       30.71233        0.417
       19.03277       12.73186       31.21028        0.417
       11.81728       21.29032       14.83302       -0.834
       11.50350       20.50212       15.27632        0.417
       12.18246       21.83051       15.53378        0.417
       13.22860        1.86044       16.47113       -0.834
       12.51336        2.49222       16.39684        0.417
       13.55334        1.75927       15.57640        0.417
       25.96823       26.38599       23.10795       -0.834
       25.04804       26.62878       23.00533        0.417
       26.06892       25.59662       22.57598        0.417
        6.93400       14.69361       12.75334       -0.834
        7.29420       15.51167       12.41090        0.417
        7.29097       14.01553       12.17974        0.417
       14.68282        3.89330       19.80308       -0.834
       15.32699        4.48115       19.40848        0.417
       14.62694        3.15586       19.19539        0.417
       24.82283       16.93513       17.90133       -0.834
       24.99926       16.05296       18.22826        0.417
       23.87899       17.04832       18.01345        0.417
       25.15494       20.62087       25.38981       -0.834
       25.29944       19.71066       25.64839        0.417
       25.92975       20.85053       24.87683        0.417
       11.38887        6.63543       14.38471       -0.834
       11.44112        7.36827       14.99826        0.417
       10.49960        6.67958       14.03330        0.417
       11.25002       13.77611       12.43853       -0.834
       11.29043       14.32029       13.22496        0.417
       11.14682       12.88379       12.76919        0.417
       15.92792       16.85733       26.26157       -0.834
       16.82416       16.58692       26.06192        0.417
       15.41289       16.05382       26.18846        0.417
       20.66929       17.93675        9.21915       -0.834
       19.97015       18.45383        9.61924        0.417
       21.38014       17.95790        9.85984        0.417
        9.55955       11.36411       17.93272       -0.834
        8.62560       11.22286       17.77776        0.417
        9.98822       10.62015       17.50962        0.417
       29.68490       10.36193       14.69646       -0.834
       30.31090       10.27389       15.41521        0.417
       29.86652        9.61423       14.12708        0.417
       12.96068       12.67075       21.59518       -0.834
       13.01419       13.58431       21.87586        0.417
       12.50868       12.70480       20.75211        0.417
       27.13058       24.96884       14.41422       -0.834
       26.77097       24.23057       13.92242        0.417
       27.98888       24.66511       14.70967        0.417
       25.98648       16.48766       13.20650       -0.834
       25.83629       15.75937       12.60379        0.417
       25.27485       16.42279       13.84337        0.417
       29.18640       15.42300       19.95988       -0.834
       28.84612       15.20689       19.09170        0.417
       30.12225       15.56874       19.82140        0.417
       11.14494       27.41243        8.76483       -0.834
       10.72789       26.97333        8.02354        0.417
       11.01080       28.34531        8.59759        0.417
       21.33513       21.08448       30.20418       -0.834
       20.51838       20.66508       29.93353        0.417
       21.82891       20.38963       30.63962        0.417
       14.64125       23.53189        8.92045       -0.834
       13.76346       23.66164        9.27945        0.417
       15.12039       24.32330        9.16607        0.417
       10.22243        5.27519       22.17805       -0.834
       10.54488        6.08383       21.78011        0.417
       10.38757        5.38604       23.11436        0.417
       14.47715       20.76538        5.06547       -0.834
       15.20716       21.16938        5.53463        0.417
       14.03044       21.49753        4.64046        0.417
       24.13594       13.19795       28.75629       -0.834
       23.82562       13.37815       29.64368        0.417
       25.05751       12.96419       28.86717        0.417
       23.32319       25.35567       13.51815       -0.834
       23.22838       25.52135       12.58018        0.417
       23.39039       24.40340       13.58806        0.417
       15.81459       10.27013       26.27094       -0.834
       15.60117       11.19233       26.41315        0.417
       15.30769       10.02299       25.49750        0.417
       31.07675       17.00656       12.97113       -0.834
       31.45833       16.18821       13.28883        0.417
       30.56453       16.75064       12.20408        0.417
       17.20970        4.70406       19.17343       -0.834
       18.00207        4.18830       19.02385        0.417
       17.36621        5.52517       18.70705        0.417
       10.94989        8.44443       10.25398       -0.834
       10.07472        8.62461       10.59728        0.417
       11.51927        8.46983       11.02300        0.417
        4.83077       10.95865       21.74946       -0.834
        4.32522       10.91700       22.56120        0.417
        5.19285       10.07854       21.64681        0.417
       12.95895       10.43706        6.06076       -0.834
       12.26730       10.84631        6.58072        0.417
       12.63073       10.46296        5.16197        0.417
       17.64069       23.14850       21.25830       -0.834
       16.91619       22.73569       20.78828        0.417
       17.90362       23.87981       20.69947        0.417
       16.03435       18.49017        4.48229       -0.834
       15.39687       19.16212        4.72382        0.417
       16.86400       18.80705        4.83936        0.417
       22.97897        7.60188        9.61190       -0.834
       22.68810        8.44499        9.26434        0.417
       22.65950        7.59114       10.51415        0.417
       14.39486        9.51962       17.95932       -0.834
       14.45545       10.46122       18.12044        0.417
       14.93899        9.12413       18.64031        0.417
       17.55383        6.81950       17.72407       -0.834
       17.51994        7.13868       16.82229        0.417
       17.05879        7.46663       18.22646        0.417
       21.51587       25.96123       15.52952       -0.834
       21.10968       25.14962       15.22533        0.417
       22.34585       26.00679       15.05486        0.417
       20.26584        6.46559       17.91789       -0.834
       20.61894        6.50441       18.80673        0.417
       19.40608        6.88131       17.98284        0.417
       10.49247       18.12947       21.07047       -0.834
       11.33555       18.57255       20.97498        0.417
       10.44344       17.90454       21.99958        0.417
       19.73569       18.00078       28.59913       -0.834
       19.35458       17.13137       28.47622        0.417
       20.20491       18.17467       27.78315        0.417
       12.17732       28.25123       13.53599       -0.834
       12.93062       28.73706       13.87177        0.417
       12.07616       27.51680       14.14147        0.417
       25.36907       25.83908       16.38542       -0.834
       24.89486       25.02521       16.55562        0.417
       26.03571       25.59837       15.74208        0.417
       17.79890       25.37750        7.37392       -0.834
       17.34855       25.79962        6.64232        0.417
       18.53942       24.92445        6.97067        0.417
       17.74511       16.75802       30.58351       -0.834
       17.91337       16.14467       29.86817        0.417