%Nproc=32
%Mem=120Gb
%chk=temp.chk
#p cam-b3lyp/6-31+G(d,p) nosymm charge Freq 

Calculation for S0 with freq for abs spect

0  1
 C         15.67001       17.52951       16.07990
 C         17.29263       15.73382       15.50664
 C         17.69386       15.59301       16.75284
 C         17.02629       16.30618       17.76575
 N         16.02668       17.20797       17.42578
 H         17.67125       15.12497       14.63812
 H         18.45954       14.96849       17.03646
 O         17.17321       16.07324       18.97937
 O         14.84122       18.33227       15.79511
 N         16.36929       16.69331       15.18925
 H         15.95504       16.77448       14.32139
 H         15.50575       17.72944       18.15479
 O         13.38791       18.82344       14.06640
 H         12.47414       18.73982       14.33891
 H         13.89110       18.68920       14.86952
 O         16.43739       13.97826       20.96304
 H         16.83503       14.60572       20.35938
 H         17.11100       13.31085       21.09358
 O         13.41083       16.21841       18.99740
 H         12.91892       15.57982       19.51359
 H         12.74342       16.68739       18.49654
 O         19.45086       19.28028       18.54024
 H         20.30080       19.67027       18.74454
 H         19.29966       18.65122       19.24569
 O         13.54275       14.58838       14.35233
 H         12.58642       14.62254       14.37487
 H         13.82208       15.37701       14.81738
 O         15.21071       17.69376       11.72672
 H         14.60721       17.11862       11.25636
 H         14.68903       18.05412       12.44382
 O         19.09013       12.23011       17.47832
 H         19.91661       12.62470       17.20001
 H         18.50317       12.35089       16.73192
 O         18.76635       17.99606       20.68032
 H         17.84362       17.74163       20.67230
 H         19.05034       17.84061       21.58110
 O         19.64698       14.63217       20.25781
 H         20.40058       15.09821       19.89570
 H         18.91247       15.23423       20.13844
 O         17.50877       16.33037       11.71590
 H         17.53643       16.20679       10.76711
 H         16.62496       16.65404       11.89010
 O         14.62297       18.80737       20.58776
 H         14.98814       19.31697       19.86444
 H         14.85247       17.90101       20.38264
 O         18.55324       21.08050       16.40134
 H         18.86112       20.36704       16.96029
 H         18.11150       21.68169       17.00106
 O         17.13439       20.29257       13.92019
 H         17.92388       20.47548       14.42958
 H         17.46007       20.01925       13.06260
 O         19.92990       19.08307       14.55819
 H         19.98095       18.70296       13.68118
 H         20.83686       19.10492       14.86344
 O         15.12602       20.04431       16.30134
 H         15.67353       20.07983       15.51699
 H         15.74196       19.88748       17.01706
 O         17.95290       12.67969       15.00108
 H         17.16773       12.16679       15.19257
 H         17.67744       13.29583       14.32230
 O         16.40358       14.22007       13.34702
 H         15.48457       14.42012       13.52483
 H         16.55650       14.55842       12.46477
 O         20.92920       16.29385       18.29743
 H         21.79204       15.88931       18.38735
 H         21.07903       17.05733       17.73986
 O         14.42341       13.20338       17.90944
 H         13.86111       13.96976       17.79673
 H         15.31421       13.54792       17.84608
 O         11.72999       16.89342       16.88566
 H         12.47396       16.54367       16.39533
 H         11.39798       17.60727       16.34122
 O         16.75931       20.24018       18.72404
 H         17.69958       20.07689       18.79803
 H         16.62113       21.06351       19.19230
 
       13.05767       29.67574       14.82197       -0.834
       12.18484       29.74186       14.43462        0.417
       13.59209       29.26715       14.14103        0.417
        2.74631       19.42666       16.63494       -0.834
        2.99626       18.65768       17.14723        0.417
        1.79682       19.48686       16.74016        0.417
       22.75853       11.90455       17.99889       -0.834
       22.46582       11.57205       18.84741        0.417
       21.95094       12.13715       17.54072        0.417
       12.38912        9.29549       19.17754       -0.834
       12.33486        9.55973       18.25913        0.417
       11.48811        9.34882       19.49623        0.417
       22.44650       12.71130        8.56828       -0.834
       22.71999       12.56140        9.47324        0.417
       21.53542       12.99668        8.63704        0.417
       27.59440        9.87211       17.59346       -0.834
       27.92695        9.57048       16.74808        0.417
       28.15794        9.44565       18.23904        0.417
       16.55198       29.95939       16.97062       -0.834
       16.09012       30.76010       17.21920        0.417
       17.45589       30.10763       17.24848        0.417
       13.99148       14.44627       22.68278       -0.834
       14.80824       14.56146       22.19712        0.417
       14.19586       13.78325       23.34222        0.417
       17.41574       19.28971        4.86812       -0.834
       17.89244       19.93019        5.39610        0.417
       16.53627       19.65739        4.78106        0.417
       11.77870       15.21880        8.51212       -0.834
       10.82433       15.29224        8.51004        0.417
       11.94764       14.29102        8.67621        0.417
       27.58634       24.70535       18.70565       -0.834
       28.06805       24.49711       17.90513        0.417
       28.26592       24.90272       19.35020        0.417
       23.27954       14.62083       18.27235       -0.834
       23.90910       14.71929       17.55808        0.417
       22.92520       13.73875       18.16006        0.417
       14.57202       16.08634       28.73021       -0.834
       14.60940       15.87647       27.79705        0.417
       14.98507       15.33810       29.16120        0.417
       26.68611       13.42428       27.28968       -0.834
       27.39500       12.79415       27.41871        0.417
       26.74005       13.65986       26.36350        0.417
        4.06898       16.86349       24.01128       -0.834
        3.37479       16.30471       23.66185        0.417
        4.88084       16.44548       23.72426        0.417
       25.59654       11.13604       19.25416       -0.834
       25.42047       12.06726       19.11972        0.417
       26.20714       10.90381       18.55454        0.417
       21.77081       12.28971       22.23242       -0.834
       22.12809       12.93437       22.84316        0.417
       22.53762       11.82243       21.90094        0.417
        7.36260       21.72697       13.76103       -0.834
        6.86469       22.31525       14.32869        0.417
        7.28601       20.86895       14.17837        0.417
       25.50183        8.50023       23.51209       -0.834
       24.85081        8.46316       22.81135        0.417
       26.21545        9.02489       23.14917        0.417
       26.28121       24.82446       21.34879       -0.834
       26.71651       24.18766       21.91557        0.417
       26.97275       25.43877       21.10257        0.417
       24.82141        6.70851       18.27143       -0.834
       25.15100        6.72147       17.37286        0.417
       24.95066        5.80551       18.56145        0.417
       25.67382       17.12927       16.85229       -0.834
       25.86459       17.89113       16.30511        0.417
       25.15734       16.55269       16.28923        0.417
       16.57019       18.22070       22.67087       -0.834
       16.82930       18.82733       23.36448        0.417
       15.82581       18.64635       22.24548        0.417
       24.48626       11.30453       27.32613       -0.834
       24.79861       10.40761       27.20703        0.417
       24.93266       11.80664       26.64433        0.417
       27.42320       22.26860        8.50939       -0.834
       27.81872       22.03073        7.67081        0.417
       28.08421       22.80935        8.94170        0.417
        9.68447       23.03579       17.73744       -0.834
        9.88134       22.28360       18.29574        0.417
        9.54466       23.75862       18.34916        0.417
       28.23527       14.77641       13.86693       -0.834
       28.66998       14.18549       14.48180        0.417
       28.69770       15.60860       13.96618        0.417
       14.09106       18.77823       26.88973       -0.834
       13.61273       18.40713       26.14830        0.417
       13.61411       18.47140       27.66084        0.417
        8.58279       12.47214       16.63223       -0.834
        8.42194       12.97040       15.83092        0.417
        9.36106       12.87742       17.01469        0.417
       14.17776       30.06288       11.21951       -0.834
       14.67249       30.34643       10.45070        0.417
       14.29188       29.11276       11.24133        0.417
       18.08829       27.76630       15.93044       -0.834
       17.50126       28.51703       16.02011        0.417
       18.09282       27.36031       16.79727        0.417
        5.25689       17.57154       17.54965       -0.834
        5.75378       16.77956       17.34446        0.417
        4.40877       17.25021       17.85572        0.417
       15.60678       29.76592       21.54513       -0.834
       15.48791       28.95750       21.04658        0.417
       15.99748       29.48281       22.37183        0.417
       28.76688       23.06018       16.83127       -0.834
       29.22893       22.87694       16.01325        0.417
       29.32433       22.68245       17.51157        0.417
       26.84415       17.88278        5.68195       -0.834
       26.52301       16.98792        5.79298        0.417
       26.12752       18.34238        5.24442        0.417
       10.37384       15.47763       11.85329       -0.834
       10.85372       16.10864       12.38974        0.417
       10.92918       14.69804       11.84530        0.417
        9.32621       16.01274        8.43801       -0.834
        8.70126       16.18107        7.73279        0.417
        8.78442       15.74213        9.17927        0.417
       16.35696       26.35541        5.56894       -0.834
       16.09840       25.77224        6.28258        0.417
       17.04781       26.90173        5.94378        0.417
       22.99060        9.02150       13.89504       -0.834
       23.85298        8.61098       13.95835        0.417
       23.05779        9.80613       14.43917        0.417
       16.08297       18.54155       28.46139       -0.834
       15.30485       18.42097       27.91714        0.417
       16.08779       17.78264       29.04471        0.417
       26.15731       13.00020       14.31880       -0.834
       26.02611       12.33691       13.64126        0.417
       26.71155       13.66101       13.90361        0.417
       17.62751        8.06544       14.74819       -0.834
       17.63767        8.95173       15.10960        0.417
       17.48957        7.49843       15.50694        0.417
        7.00210        4.89897       16.98034       -0.834
        7.42174        5.43225       16.30524        0.417
        7.65474        4.23460       17.20147        0.417
       19.07472       18.72762        7.78880       -0.834
       18.70717       17.96405        7.34371        0.417
       18.31821       19.28322        7.97647        0.417
       18.42615        2.94359       14.06510       -0.834
       18.26709        2.25152       13.42326        0.417
       18.72276        3.69011       13.54455        0.417
       13.19436       24.01792       17.13759       -0.834
       13.24138       24.52210       17.94988        0.417
       13.50959       24.61955       16.46312        0.417
       24.53074        6.62732        7.27610       -0.834
       23.65396        6.90477        7.54163        0.417
       24.66295        5.79060        7.72180        0.417
       24.98058       24.09415       17.99149       -0.834
       25.02305       23.38234       17.35293        0.417
       25.87730       24.18004       18.31513        0.417
       17.67670       26.50689       18.25752       -0.834
       18.12371       26.61580       19.09690        0.417
       17.63274       25.55921       18.13022        0.417
       22.84934       29.42297       12.17274       -0.834
       23.47538       28.70573       12.27207        0.417
       22.59737       29.64738       13.06850        0.417
       22.06802       18.28006        2.74946       -0.834
       21.86531       17.84621        3.57826        0.417
       22.88565       18.74855        2.91752        0.417
        4.45139       13.27457       22.65585       -0.834
        4.77963       12.68619       23.33578        0.417
        3.91114       12.71682       22.09614        0.417
       10.74635       19.78052        9.68455       -0.834
       10.40359       20.35282       10.37101        0.417
       10.01845       19.67870        9.07135        0.417
       18.55903       22.60618       27.20211       -0.834
       17.93528       23.12573       27.70929        0.417
       18.90286       23.21499       26.54838        0.417
       19.05409       21.41262       20.55406       -0.834
       19.50373       20.58850       20.36732        0.417
       19.13493       21.52074       21.50170        0.417
        9.48662        4.75176       10.29177       -0.834
        9.45201        3.81967       10.50681        0.417
       10.42031        4.96258       10.28758        0.417
       28.50549        8.87823       15.22497       -0.834
       28.73750        8.28989       14.50645        0.417
       29.02174        9.66816       15.06456        0.417
       20.34697       17.80155       23.25832       -0.834
       21.22696       17.83742       22.88340        0.417
       20.38232       18.39249       24.01051        0.417
       21.23210       20.48777       28.13067       -0.834
       20.62504       21.22186       28.03678        0.417
       21.22953       20.06299       27.27289        0.417
       15.94879       16.08492       24.07339       -0.834
       16.22605       16.85971       23.58445        0.417
       15.07348       15.89030       23.73846        0.417
       10.41738       12.47203       21.18566       -0.834
        9.46637       12.50998       21.28751        0.417
       10.70136       13.38440       21.24186        0.417
       23.38562       23.99047        6.59986       -0.834
       23.92576       23.36183        7.07870        0.417
       23.63227       24.84227        6.96017        0.417
       20.14165       21.44575        9.74707       -0.834
       21.03139       21.09542        9.70385        0.417
       19.57915       20.67136        9.75913        0.417
        8.35017       15.29622       19.93174       -0.834
        8.15838       14.67111       20.63080        0.417
        8.35577       16.14872       20.36699        0.417
       13.94107       12.06678       13.30062       -0.834
       13.56132       12.85721       13.68433        0.417
       14.45199       11.67719       14.01014        0.417
       18.37014        8.54946       21.26360       -0.834
       18.11212        9.22492       20.63638        0.417
       19.24911        8.80501       21.54347        0.417
       18.07029        6.49105       19.99513       -0.834
       18.45171        5.71327       20.40232        0.417
       18.20399        7.18816       20.63730        0.417
        9.10119       24.38951       13.57615       -0.834
        8.26949       23.92366       13.48965        0.417
        8.88618       25.30220       13.38382        0.417
       19.60865       11.95412        5.24052       -0.834
       18.93746       11.29855        5.43012        0.417
       19.23243       12.48713        4.54010        0.417
       22.28574       26.66536       20.24081       -0.834
       21.32999       26.69930       20.28106        0.417
       22.48613       25.74553       20.06763        0.417
        8.82193        7.61086        7.41143       -0.834
        9.36007        7.27576        6.69425        0.417
        8.22973        8.23694        6.99483        0.417
       13.21630       26.34891       18.84868       -0.834
       13.97054       26.93478       18.91285        0.417
       12.45938       26.91452       19.00160        0.417
       18.33342       22.33241        2.58866       -0.834
       19.08177       21.99226        3.07908        0.417
       18.11247       23.15402        3.02726        0.417
       22.62027       20.25918       14.20702       -0.834
       23.37447       20.38791       14.78222        0.417
       23.00166       20.04885       13.35465        0.417
       19.38156        7.65426       25.54187       -0.834
       18.67683        7.56628       26.18363        0.417
       19.20616        8.48801       25.10561        0.417
        3.94292       13.54330       13.54543       -0.834
        4.77729       13.92457       13.27213        0.417
        3.28572       14.00714       13.02662        0.417
       10.27031        7.05221       14.22815       -0.834
       10.82608        7.57269       14.80820        0.417
       10.74843        7.02393       13.39940        0.417
       20.72997       27.66800       24.23140       -0.834
       21.39082       28.23475       23.83351        0.417
       21.00676       26.78034       24.00406        0.417
       22.26951       14.35999       23.84363       -0.834
       21.37157       14.63026       23.65156        0.417
       22.32778       14.38245       24.79879        0.417
       20.29555       15.18161        4.71549       -0.834
       19.78209       15.33289        3.92196        0.417
       20.43269       14.23450        4.73569        0.417
        7.36112       20.47296       20.79040       -0.834
        7.36564       20.80629       21.68767        0.417
        8.27294       20.53650       20.50618        0.417
       10.27748       16.84655       24.34376       -0.834
        9.66084       16.88272       23.61253        0.417
        9.73601       16.63434       25.10402        0.417
       10.19531       20.69476       21.02191       -0.834
       10.83643       20.50173       20.33786        0.417
       10.07308       19.86220       21.47811        0.417
       16.78956        5.73779       12.90673       -0.834
       17.30248        5.00659       13.25095        0.417
       17.43676        6.41762       12.71913        0.417
       11.83403       21.20388        5.28460       -0.834
       11.09147       21.22496        5.88825        0.417
       12.00166       22.12340        5.07816        0.417
       24.50593        9.12823       10.06500       -0.834
       25.12731        9.15067        9.33725        0.417
       24.05238        9.96992       10.01934        0.417
        6.24976       15.28491       23.54649       -0.834
        6.64200       14.59693       24.08413        0.417
        5.63463       14.82297       22.97686        0.417
       20.26221        8.91727       12.85081       -0.834
       21.20368        8.75812       12.91815        0.417
       19.86111        8.07021       13.04533        0.417
       16.53566       14.78642       29.91573       -0.834
       17.23501       14.27044       29.51461        0.417
       16.98523       15.53262       30.31235        0.417
       12.35583       25.47733       23.66834       -0.834
       12.77094       26.30533       23.42680        0.417
       12.18618       25.04134       22.83326        0.417
       21.99518       12.63362       28.09225       -0.834
       22.84433       12.19427       28.04578        0.417
       21.35614       11.92099       28.09576        0.417
       23.75479       23.18846       11.62324       -0.834
       22.81108       23.12106       11.76849        0.417
       24.06195       22.28190       11.61676        0.417
       10.72443       27.52281       19.21621       -0.834
       10.50506       27.12460       18.37387        0.417
       10.29195       28.37654       19.19795        0.417
       23.49840        3.99147       14.59742       -0.834
       23.63669        3.67938       13.70316        0.417
       23.16197        4.88134       14.49171        0.417
       23.74159       27.56695       13.96648       -0.834
       22.81767       27.57641       14.21650        0.417
       24.17861       28.08413       14.64306        0.417
       19.27207        6.23125        9.05801       -0.834
       20.16373        5.99708        8.80044        0.417
       19.37967        6.98762        9.63469        0.417
       14.82674        9.68459        5.16285       -0.834
       14.97325        9.17533        5.95998        0.417
       14.24528       10.39453        5.43511        0.417
       11.78906       20.43015       18.80924       -0.834
       11.98496       19.50278       18.67569        0.417
       12.28678       20.88120       18.12729        0.417
        8.40987       13.44131       14.09784       -0.834
        7.68538       14.01993       13.86006        0.417
        8.62741       12.98310       13.28607        0.417
       19.26672       11.60363       12.87698       -0.834
       19.53355       10.68629       12.81767        0.417
       18.96715       11.70852       13.78002        0.417
       20.36745       23.47362       29.76726       -0.834
       19.66967       22.99514       30.21492        0.417
       20.07296       23.53286       28.85842        0.417
       11.21649        9.78276       25.56544       -0.834
       11.78204        9.03135       25.74365        0.417
       11.23295        9.87495       24.61283        0.417
       11.68940       29.88748       17.18716       -0.834
       10.99793       29.25058       17.00703        0.417
       12.27538       29.82531       16.43284        0.417
       14.69398       22.15127       10.70113       -0.834
       13.84486       22.30216       11.11642        0.417
       14.60984       21.29182       10.28822        0.417
       13.45471        6.27697        8.36332       -0.834
       14.34739        6.54808        8.14918        0.417
       12.92608        7.06340        8.22804        0.417
       26.97228       10.01974       21.61625       -0.834
       26.39462       10.20962       20.87700        0.417
       27.34839       10.86807       21.85099        0.417
       10.05741       14.34941        4.99368       -0.834
        9.99384       15.29684        5.11439        0.417
        9.56511       14.17615        4.19127        0.417
       10.88044       14.59721       14.91875       -0.834
       10.25172       14.05151       14.44634        0.417
       10.60332       14.54554       15.83350        0.417
       19.78518       27.94706       19.79857       -0.834
       19.99848       28.87930       19.83938        0.417
       20.23600       27.63179       19.01525        0.417
       15.83646        3.30379        9.85232       -0.834
       15.55491        2.39063        9.90795        0.417
       16.51298        3.30551        9.17516        0.417
        4.33788       13.48583       16.38644       -0.834
        4.82375       12.68761       16.59382        0.417
        4.34759       13.53114       15.43036        0.417
       26.88379        6.34077       16.15460       -0.834
       27.56751        6.97599       16.36730        0.417
       27.02773        5.61920       16.76684        0.417
       19.58365       14.73427       23.24768       -0.834
       19.35341       15.61065       23.55620        0.417
       19.61542       14.81605       22.29451        0.417
       12.97268       24.47111       20.91630       -0.834
       13.36224       25.11666       20.32660        0.417
       12.41434       23.93650       20.35176        0.417
       12.33801       23.81566        7.14595       -0.834
       12.36740       24.61166        7.67675        0.417
       12.07420       24.11662        6.27644        0.417
       17.02985        9.18204        9.15046       -0.834
       17.85318        9.03898        9.61723        0.417
       16.68071        9.99198        9.52239        0.417
       13.31491       19.65760       23.21650       -0.834
       13.52667       19.54910       22.28935        0.417
       12.58492       20.27669       23.22509        0.417
       22.69787       20.50297       25.40945       -0.834
       23.50623       21.00866       25.49355        0.417
       22.99147       19.60401       25.26141        0.417
       17.17466       18.72029        1.51587       -0.834
       16.25508       18.65081        1.25939        0.417
       17.18450       18.47802        2.44185        0.417
        8.56012       18.52536       12.43737       -0.834
        8.21654       18.13685       13.24188        0.417
        7.98614       18.19404       11.74671        0.417
       25.61521        7.87753       14.00454       -0.834
       25.90659        7.30883       14.71722        0.417
       25.73481        7.35169       13.21370        0.417
        4.89518       17.32174       12.90925       -0.834
        4.91430       17.76234       12.05969        0.417
        4.79634       18.03047       13.54498        0.417
       14.70959        9.01140       20.61892       -0.834
       13.87626        9.20093       20.18781        0.417
       15.09829        9.87144       20.77853        0.417
       20.30965       10.61863       27.32040       -0.834
       20.94224        9.94897       27.06037        0.417
       19.85642       10.84850       26.50924        0.417
       13.90133       27.82906       23.49182       -0.834
       14.29320       28.60211       23.89809        0.417
       13.44069       28.16866       22.72454        0.417
       15.71383        7.96513        7.10905       -0.834
       16.36058        7.27259        6.97359        0.417
       15.87943        8.27748        7.99857        0.417
       23.13788       12.30641       11.14490       -0.834
       23.97781       12.19020       11.58901        0.417
       22.49750       12.36449       11.85397        0.417
        2.57352       16.79654       17.33531       -0.834
        2.40334       15.92161       17.68426        0.417
        2.47679       16.70006       16.38791        0.417
       10.43347       17.48671        2.92783       -0.834
       10.47931       18.36962        2.56097        0.417
       11.34741       17.21828        3.02217        0.417
       11.98210        7.98325       11.95967       -0.834
       12.81195        8.32308       11.62487        0.417
       11.88391        7.13025       11.53661        0.417
        7.11820        8.06895       21.10182       -0.834
        7.40577        8.41241       21.94773        0.417
        7.92144        7.76046       20.68244        0.417
       14.22550       22.57991       22.49660       -0.834
       13.97649       23.37103       22.01872        0.417
       13.60869       22.53677       23.22729        0.417
       27.26569       12.10638        5.79289       -0.834
       27.22070       12.49695        6.66562        0.417
       28.18578       12.18632        5.54134        0.417
       29.28826       12.43978       11.37738       -0.834
       28.50415       12.28715       10.85002        0.417
       29.95656       12.70080       10.74375        0.417
       22.05979       17.09439        5.45493       -0.834
       22.38173       16.57081        6.18872        0.417
       21.37445       16.55635        5.05865        0.417
       20.44368        9.86347       15.35225       -0.834
       20.42714        9.20257       16.04447        0.417
       20.35868        9.36313       14.54067        0.417
       11.79379       21.79678       23.90954       -0.834
       12.33051       21.57439       24.67026        0.417
       10.90990       21.51902       24.14998        0.417
       20.93054       26.77652       17.39680       -0.834
       21.51627       26.02631       17.29514        0.417
       20.62014       26.96052       16.51022        0.417
        9.60807       24.90555       19.77186       -0.834
        9.71981       25.83047       19.99160        0.417
        9.72920       24.44525       20.60233        0.417
       24.37660       27.20275       18.51962       -0.834
       23.67681       27.11523       19.16681        0.417
       24.49883       26.31732       18.17711        0.417
       24.79666       24.48548       13.67396       -0.834
       24.60408       25.41632       13.56138        0.417
       24.31611       24.05385       12.96756        0.417
        8.36471       16.94895       22.47188       -0.834
        7.97686       17.75176       22.82016        0.417
        7.79172       16.24961       22.78625        0.417
       24.64822       28.68180       16.32746       -0.834
       23.93967       29.30699       16.48019        0.417
       24.65090       28.12688       17.10739        0.417
       22.02082        3.18455       18.22434       -0.834
       22.30552        2.69284       18.99467        0.417
       22.59094        2.87748       17.51943        0.417
       22.53977       24.08260       19.49994       -0.834
       23.47872       24.08692       19.31399        0.417
       22.20360       23.32555       19.02025        0.417
       14.39877       21.62099        7.35335       -0.834
       14.16231       21.07610        8.10395        0.417
       13.62930       22.17032        7.20368        0.417
       15.24323       14.72711        8.24707       -0.834
       14.92174       15.35687        8.89227        0.417
       14.55898       14.69815        7.57835        0.417
        8.44698       19.38323        8.09868       -0.834