%Nproc=32
%Mem=120Gb
%chk=temp.chk
#p cam-b3lyp/6-31+G(d,p) nosymm charge Freq 

Calculation for S0 with freq for abs spect

0  1
 C         15.67001       17.52951       16.07990
 C         17.29263       15.73382       15.50664
 C         17.69386       15.59301       16.75284
 C         17.02629       16.30618       17.76575
 N         16.02668       17.20797       17.42578
 H         17.67125       15.12497       14.63812
 H         18.45954       14.96849       17.03646
 O         17.17321       16.07324       18.97937
 O         14.84122       18.33227       15.79511
 N         16.36929       16.69331       15.18925
 H         15.95504       16.77448       14.32139
 H         15.50575       17.72944       18.15479
 O         16.57192       18.61664       12.80149
 H         17.43476       18.99260       12.97581
 H         16.72102       17.67128       12.78459
 O         11.55412       18.31473       15.62543
 H         12.46667       18.05258       15.50398
 H         11.13319       17.54674       16.01174
 O         12.49900       14.19134       16.52692
 H         12.43930       15.09804       16.82786
 H         11.62135       13.83472       16.66398
 O         21.64084       18.06108       15.66651
 H         21.76342       18.16397       14.72279
 H         20.73669       18.33401       15.82224
 O         21.31270       13.53133       17.24530
 H         20.73104       13.78951       16.53029
 H         21.97422       14.22238       17.27796
 O         16.34727       20.70288       14.72339
 H         16.05469       20.33631       13.88898
 H         15.81413       21.48924       14.84017
 O         18.35904       18.89311       18.92410
 H         19.16946       19.24962       18.56032
 H         18.62042       18.06458       19.32591
 O         16.61077       20.84215       18.98283
 H         15.75865       20.50904       18.70148
 H         17.20448       20.09812       18.88205
 O         13.66489       18.89652       13.63134
 H         14.11951       18.24940       13.09210
 H         13.94747       18.70487       14.52557
 O         20.20506       15.73070       13.13280
 H         20.46925       16.62704       13.34023
 H         20.17897       15.70345       12.17634
 O         19.49460       13.90361       15.17874
 H         18.59829       13.57904       15.09203
 H         19.67499       14.33616       14.34412
 O         15.02634       14.42899       13.79913
 H         15.20412       14.03497       12.94510
 H         15.57606       15.21228       13.82117
 O         14.21380       19.67664       17.96683
 H         14.28402       19.32633       17.07880
 H         13.80918       18.97127       18.47177
 O         18.62002       13.22564       18.81528
 H         19.21971       13.93985       18.59963
 H         18.52355       13.27220       19.76647
 O         14.48815       13.63779       20.49746
 H         14.68340       13.07619       21.24760
 H         15.25139       14.21042       20.42128
 O         17.58831       16.22526       12.42334
 H         18.35071       15.68710       12.63631
 H         17.32892       15.93817       11.54782
 O         19.16669       21.06041       15.33831
 H         19.10832       20.56995       14.51839
 H         18.25643       21.21516       15.59071
 O         17.07822       12.32401       15.15880
 H         16.49830       13.08022       15.24863
 H         16.72213       11.83530       14.41678
 O         16.99610       15.16798       20.52905
 H         17.23476       15.71825       19.78308
 H         17.72713       15.26149       21.13985
 O         19.49499       16.15442       19.62857
 H         20.01586       16.77019       20.14408
 H         19.74657       15.29198       19.95894
 
       23.77496        3.96143       14.28062       -0.834
       23.54806        3.79797       15.19606        0.417
       23.37349        4.80717       14.08120        0.417
       24.96816       24.15348       21.56351       -0.834
       24.71736       24.67076       20.79817        0.417
       25.84684       24.46227       21.78441        0.417
        9.82203       27.73567       20.04545       -0.834
       10.31945       26.92857       20.17732        0.417
        9.55132       27.99725       20.92552        0.417
       25.13062        7.27861       23.33670       -0.834
       25.41281        7.60884       22.48373        0.417
       24.38662        6.70956       23.13956        0.417
       19.12721       17.25534       22.21461       -0.834
       19.27960       18.05072       21.70434        0.417
       19.97777       17.05384       22.60473        0.417
       26.05789       17.35013       13.13100       -0.834
       25.89992       17.52418       12.20311        0.417
       25.69226       16.47768       13.27717        0.417
        5.06178       11.48213       20.39217       -0.834
        5.06245       11.96397       21.21925        0.417
        5.90612       11.03151       20.37627        0.417
       24.80355       21.07001       18.44541       -0.834
       25.72042       21.24661       18.65611        0.417
       24.33536       21.22009       19.26670        0.417
       20.10021        5.84720       17.38898       -0.834
       20.88042        5.79213       17.94076        0.417
       19.97348        6.78505       17.24544        0.417
       18.47252       21.70580       29.77434       -0.834
       18.59374       20.95873       29.18832        0.417
       18.14661       21.32188       30.58836        0.417
       19.82049       20.01079       21.50401       -0.834
       19.38302       20.81385       21.78675        0.417
       20.51986       20.31026       20.92312        0.417
       16.55546        8.86374       29.64758       -0.834
       16.12260        9.69382       29.44799        0.417
       15.85093        8.21595       29.63235        0.417
       28.98598       22.30534       16.75090       -0.834
       28.52217       21.81338       17.42847        0.417
       29.11871       23.17300       17.13271        0.417
       26.71191       10.85375       24.36710       -0.834
       26.14342       11.52724       23.99364        0.417
       26.12926       10.32095       24.90828        0.417
       22.04177       11.98218        3.98558       -0.834
       22.93032       11.71676        3.74836        0.417
       21.54261       11.90316        3.17267        0.417
       17.32213       25.22530       20.18139       -0.834
       17.52719       24.36531       20.54828        0.417
       17.18269       25.78504       20.94525        0.417
        4.09530       20.69374       16.15570       -0.834
        4.72322       19.99285       15.98047        0.417
        3.55003       20.35542       16.86594        0.417
       23.18363       15.30521       12.03622       -0.834
       23.62876       15.45183       12.87084        0.417
       22.40639       14.79553       12.26505        0.417
       22.03579       21.73743       25.41009       -0.834
       21.82374       22.33611       24.69396        0.417
       21.47369       20.97702       25.26161        0.417
       13.88738        7.60084       18.69866       -0.834
       13.92849        8.04808       17.85337        0.417
       13.29777        8.13922       19.22661        0.417
       13.83463       31.38485       13.78306       -0.834
       13.33827       30.59360       13.57381        0.417
       13.16713       32.04041       13.98536        0.417
       24.74364       17.49152       18.07794       -0.834
       24.78408       18.34971       17.65590        0.417
       24.74030       17.68503       19.01538        0.417
        6.76145        8.54643       17.63933       -0.834
        7.27155        7.82550       18.00851        0.417
        6.06353        8.11763       17.14408        0.417
       11.51450        6.89704       26.04816       -0.834
       10.55915        6.95278       26.06880        0.417
       11.69664        5.99427       25.78727        0.417
       28.94094       17.51988       13.68188       -0.834
       28.04665       17.29459       13.42551        0.417
       29.49033       17.13712       12.99784        0.417
       25.66807       19.37382        8.78226       -0.834
       26.24706       19.17106        9.51703        0.417
       25.13748       20.10848        9.09044        0.417
        6.45417        8.04073       13.68734       -0.834
        6.22943        7.11113       13.64773        0.417
        7.30547        8.10050       13.25381        0.417
       14.66708       18.73086        6.59905       -0.834
       14.17642       19.45954        6.21891        0.417
       15.27519       19.14464        7.21161        0.417
       20.99053       23.95529       28.21788       -0.834
       20.24048       24.30764       28.69694        0.417
       21.16385       23.10973       28.63166        0.417
       30.12057       15.34936       12.30712       -0.834
       29.39099       15.39431       11.68911        0.417
       30.03738       14.48709       12.71431        0.417
       24.56315       19.18321       28.17259       -0.834
       25.48431       18.93603       28.09135        0.417
       24.47107       19.95364       27.61207        0.417
       19.63869        8.31423        9.56481       -0.834
       19.99166        7.47767        9.86783        0.417
       19.58525        8.22171        8.61359        0.417
       23.19945       11.55906       28.54854       -0.834
       23.13807       12.24109       27.87974        0.417
       23.73595       11.94792       29.23933        0.417
       20.30508       30.12542       19.11178       -0.834
       20.56754       30.70038       19.83065        0.417
       20.19786       29.26579       19.51892        0.417
       21.12769       29.23672       16.57676       -0.834
       21.01453       28.28637       16.56049        0.417
       20.62590       29.52513       17.33916        0.417
       15.63126       10.43500       17.70938       -0.834
       14.78440       10.19793       18.08734        0.417
       15.41427       10.84154       16.87041        0.417
       24.08301       11.01060       21.01076       -0.834
       24.75761       11.67657       20.87799        0.417
       23.34427       11.30811       20.47975        0.417
        5.88620       11.46383       23.98698       -0.834
        6.29438       12.22927       23.58235        0.417
        5.84330       11.67911       24.91867        0.417
       13.44259       20.72919        5.12339       -0.834
       12.78578       21.23354        4.64332        0.417
       13.99936       20.35099        4.44280        0.417
       10.90422        5.83338       19.26198       -0.834
       10.79165        6.77280       19.11691        0.417
       11.70651        5.76492       19.77956        0.417
       16.55164        6.07054        5.87475       -0.834
       16.11237        6.86897        5.58186        0.417
       17.03509        5.76696        5.10640        0.417
       24.56198       21.94929       26.64890       -0.834
       23.80174       21.59713       26.18603        0.417
       25.23669       22.03095       25.97486        0.417
       13.65432       16.91306       30.97893       -0.834
       13.16524       16.09031       30.98976        0.417
       13.95842       16.99959       30.07545        0.417
        2.62587       14.53456       15.88599       -0.834
        2.92042       14.19086       16.72941        0.417
        1.74791       14.87452       16.05878        0.417
       27.38699        9.58159       18.41499       -0.834
       27.12362        9.15563       17.59926        0.417
       28.04886       10.22008       18.14949        0.417
       16.03417       23.41891        5.78739       -0.834
       15.48596       23.16568        6.53006        0.417
       16.25130       24.33664        5.95128        0.417
       12.02255       15.28531       20.39791       -0.834
       11.41653       14.57046       20.59273        0.417
       12.84596       15.02031       20.80779        0.417
       15.26048       22.78846        8.33256       -0.834
       15.55277       23.61226        8.72262        0.417
       15.67703       22.11012        8.86415        0.417
       17.42006        9.13391       23.86819       -0.834
       16.82513        9.25302       23.12785        0.417
       16.84481        9.07177       24.63073        0.417
       17.44248       13.72886       30.41102       -0.834
       17.90570       12.90125       30.54036        0.417
       16.69998       13.68500       31.01352        0.417
       19.76558        9.16353       13.48051       -0.834
       20.24542        9.61133       14.17726        0.417
       19.80672        9.76423       12.73641        0.417
       15.79101        6.80159       27.04833       -0.834
       15.31589        7.10607       27.82150        0.417
       15.63004        5.85834       27.02376        0.417
       17.56527       28.56927       24.27940       -0.834
       17.66025       27.62200       24.37884        0.417
       16.62178       28.72250       24.33009        0.417
        5.24702       16.50984       17.42724       -0.834
        5.48520       16.07607       16.60788        0.417
        4.86924       15.81457       17.96586        0.417
       17.15328       21.35109       21.62437       -0.834
       16.35409       21.24778       22.14095        0.417
       16.87611       21.20011       20.72070        0.417
       30.48141       15.44231       19.31014       -0.834
       30.33877       16.10114       18.63055        0.417
       30.91478       14.71944       18.85641        0.417
        6.83647       18.35003       18.91831       -0.834
        6.16297       17.76783       18.56665        0.417
        7.35644       18.60369       18.15574        0.417
       13.40137        7.93641        3.69863       -0.834
       14.01521        8.31718        4.32668        0.417
       13.78330        7.08795        3.47398        0.417
       15.09937       16.87158       25.73231       -0.834
       14.63566       16.68906       24.91506        0.417
       15.94813       17.21629       25.45482        0.417
       24.10594       15.51777       22.71030       -0.834
       24.49607       16.39170       22.72649        0.417
       23.19987       15.65427       22.98711        0.417
       23.91929       12.49395       25.16182       -0.834
       24.57900       12.78818       24.53378        0.417
       23.68440       11.61362       24.86844        0.417
       25.26979       28.40531       10.57645       -0.834
       24.58979       28.74879       11.15596        0.417
       25.00041       27.50430       10.39800        0.417
       11.49939       15.66326        5.32614       -0.834
       11.15672       16.40007        4.82025        0.417
       11.40346       14.90828        4.74559        0.417
       25.07218        9.19803       25.25152       -0.834
       25.16170        8.38276       24.75801        0.417
       24.16157        9.20126       25.54648        0.417
       12.07327       25.74267        9.41162       -0.834
       12.81857       26.19090        9.81142        0.417
       11.33492       26.33641        9.54778        0.417
       27.36389       18.29234       10.54625       -0.834
       28.21555       18.70844       10.41296        0.417
       27.53433       17.35669       10.43784        0.417
        6.43574       13.72043        7.54037       -0.834
        6.73792       14.44767        8.08447        0.417
        7.23906       13.29312        7.24317        0.417
       19.91855       25.18447       12.80852       -0.834
       19.39066       24.72124       13.45889        0.417
       20.81843       25.09558       13.12242        0.417
       21.14980       22.95961       10.53815       -0.834
       20.85089       23.63400       11.14813        0.417
       21.99742       22.68108       10.88486        0.417
       16.75937       28.91513       12.66834       -0.834
       17.61616       28.92640       13.09496        0.417
       16.14117       28.73360       13.37623        0.417
       14.43907        1.76867       20.11789       -0.834
       14.75054        2.34007       19.41594        0.417
       13.53160        2.03737       20.26120        0.417
       22.21233        3.61681       16.28974       -0.834
       21.30275        3.70107       16.00376        0.417
       22.24221        4.07105       17.13177        0.417
       25.50719        6.21457       14.47296       -0.834
       25.75667        5.32041       14.70632        0.417
       25.74511        6.29684       13.54945        0.417
       20.85330       23.58908       18.88431       -0.834
       19.93544       23.84702       18.79931        0.417
       21.20819       24.18020       19.54829        0.417
       19.49610       11.78533       26.93879       -0.834
       19.41339       10.85492       27.14790        0.417
       20.43527       11.96142       26.99526        0.417
       25.43929       21.07912       13.65665       -0.834
       25.72798       20.35560       13.10040        0.417
       24.93356       20.65966       14.35273        0.417
       21.12920       16.37796       24.14924       -0.834
       21.26695       15.43471       24.06242        0.417
       20.41680       16.45910       24.78337        0.417
        4.32636       16.96987       21.84856       -0.834
        3.66532       17.48299       21.38384        0.417
        4.76990       17.60392       22.41202        0.417
       18.54294        3.65438       18.20732       -0.834
       18.76817        2.90506       17.65593        0.417
       18.74047        4.41868       17.66596        0.417
        4.12297        9.49881       14.14811       -0.834
        4.98599        9.09243       14.06880        0.417
        4.27929       10.42844       13.98202        0.417
       20.70704        6.68499       13.07863       -0.834
       21.45458        6.53332       13.65692        0.417
       20.42665        7.57819       13.27813        0.417
        7.05262       24.59003       20.48193       -0.834
        6.56505       24.08435       21.13216        0.417
        7.69556       23.97361       20.13137        0.417
       22.56610       13.86216       26.98786       -0.834
       22.79026       14.78572       27.10192        0.417
       23.17062       13.54985       26.31462        0.417
       14.31864        5.64522       11.88315       -0.834
       14.81713        6.25080       11.33451        0.417
       14.96541        5.28105       12.48754        0.417
       13.37741        5.70475       20.55440       -0.834
       13.68405        6.17221       19.77742        0.417
       13.96343        5.99246       21.25443        0.417
       15.71015       28.09418       21.21265       -0.834
       15.97023       28.91881       21.62323        0.417
       15.10662       28.35275       20.51614        0.417
       19.90531       26.42636       22.49342       -0.834
       20.48385       26.86063       23.12026        0.417
       20.24766       25.53483       22.42862        0.417
        6.94338       13.62498       16.68929       -0.834
        7.01072       12.78044       16.24382        0.417
        6.63031       14.22777       16.01485        0.417
       24.88748       12.70485        8.09024       -0.834
       24.17047       12.12975        8.35743        0.417
       24.57802       13.58654        8.29780        0.417
       29.23882       17.22077        8.28696       -0.834
       28.46648       17.64540        7.91357        0.417
       29.05512       16.28398        8.21679        0.417
       13.96081       16.11318        3.35821       -0.834
       13.97282       15.19614        3.08413        0.417
       13.47404       16.11097        4.18239        0.417
       13.38429       21.08171       11.90345       -0.834
       13.00577       21.67744       12.55002        0.417
       13.32395       20.21703       12.30954        0.417
        6.89805       17.56026        9.12765       -0.834
        7.82604       17.52762        8.89526        0.417
        6.71709       16.70334        9.51389        0.417
       25.63447       13.41952       23.16834       -0.834
       26.31106       13.44874       22.49188        0.417
       24.95052       14.00828       22.84928        0.417
       23.94171       25.99100        8.61283       -0.834
       23.07521       25.71451        8.31458        0.417
       24.50275       25.89350        7.84345        0.417
       19.03011        5.42874       26.68137       -0.834
       18.12845        5.66437       26.46294        0.417
       19.49791        5.47074       25.84732        0.417
       25.07811       13.20682       14.92067       -0.834
       24.59638       12.58877       15.47037        0.417
       25.99950       13.00301       15.08109        0.417
       22.61210        8.41525        5.81299       -0.834
       22.54761        8.24016        4.87415        0.417
       22.51595        7.55637        6.22446        0.417
        4.71937       20.95316       11.75184       -0.834
        4.12844       21.49638       12.27332        0.417
        4.20292       20.17709       11.53452        0.417
       19.70129       12.26509        2.04633       -0.834
       19.34560       11.76039        1.31489        0.417
       19.00963       12.24903        2.70783        0.417
       23.75417       22.91377       11.85606       -0.834
       24.24793       23.55380       11.34342        0.417
       24.41293       22.48277       12.40058        0.417
       18.33377       10.51274       18.37529       -0.834
       17.41490       10.74024       18.23335        0.417
       18.76230       11.34864       18.55928        0.417
        5.14350       11.08413       16.44734       -0.834
        4.29501       10.64161       16.46888        0.417
        5.38667       11.18179       17.36797        0.417
       10.72447       30.82806       16.04668       -0.834
       10.26091       31.03815       16.85736        0.417
       10.94271       29.89969       16.12870        0.417
       26.82575        8.77697        8.34466       -0.834
       27.16340        9.35999        9.02459        0.417
       26.22985        9.32441        7.83333        0.417
       13.44089       12.16067       29.55649       -0.834
       14.19408       11.91384       29.01982        0.417
       12.82854       12.56259       28.94027        0.417
       13.97745        8.53793       15.84229       -0.834
       13.41399        8.00114       15.28498        0.417
       13.84337        9.43229       15.52862        0.417
       18.63681        8.99453       27.32124       -0.834
       17.74202        8.66518       27.23687        0.417
       18.89351        8.76577       28.21455        0.417
       21.79657       14.07840        8.29824       -0.834
       21.06140       14.37315        8.83571        0.417
       21.79983       13.12636        8.39740        0.417
       17.10979       20.79989       25.64731       -0.834
       16.18841       20.71238       25.89152        0.417
       17.17671       21.67878       25.27408        0.417
       26.83573       26.29232       21.16085       -0.834
       27.37875       26.97237       20.76226        0.417
       26.47147       26.70452       21.94420        0.417
       10.22650       17.75357        3.98906       -0.834
       10.60820       18.45884        3.46643        0.417
        9.58998       18.19123        4.55432        0.417
       21.15729        9.64887       18.67025       -0.834
       21.44149       10.35264       19.25349        0.417
       20.21676        9.57011       18.82972        0.417
       13.25366       11.44515       12.36869       -0.834
       12.82153       12.25182       12.64936        0.417
       12.55430       10.79183       12.35119        0.417
        6.51869       21.39001       17.41017       -0.834
        5.87514       21.32694       16.70441        0.417
        6.14852       22.03219       18.01582        0.417
       18.74472       17.61334        2.77985       -0.834
       19.54432       17.70591        2.26186        0.417
       18.24191       16.93683        2.32625        0.417
        7.79177       14.90434       25.36120       -0.834
        8.13765       15.25835       24.54189        0.417
        8.55719       14.54404       25.80903        0.417
       16.02454        3.07239       21.84105       -0.834
       15.39950        2.99471       21.12027        0.417
       16.81427        2.63561       21.52200        0.417
       28.41937       14.65091        7.99751       -0.834
       29.02074       13.91551        8.11491        0.417
       27.83718       14.37423        7.28988        0.417
       21.75935       12.16286       19.43629       -0.834
       21.40972       12.41685       18.58220        0.417
       21.64960       12.94171       19.98179        0.417
       21.03403       24.05429       23.43414       -0.834
       21.15996       24.53161       24.25423        0.417
       20.29227       23.47410       23.60563        0.417
       12.52394       13.25606        9.93977       -0.834
       11.75814       13.81984        9.83055        0.417
       12.91978       13.54553       10.76181        0.417
       11.74659       17.29635       18.71119       -0.834
       11.01163       17.09954       18.13039        0.417
       11.86034       16.50143       19.23213        0.417
       19.73549        4.60318       14.78529       -0.834
       19.55986        5.09401       15.58807        0.417
       20.06191        5.25922       14.16943        0.417
       23.30764       22.60726       22.93211       -0.834
       24.06502       23.18663       22.84878        0.417
       22.55434       23.19764       22.94686        0.417
        8.70799       19.11708        5.96040       -0.834
        9.16539       19.22686        6.79405        0.417
        8.41937       19.99939        5.72702        0.417
       11.88985       24.62644       11.99216       -0.834
       11.07256       25.11341       11.88672        0.417
       11.98406       24.13603       11.17554        0.417
       26.31131        6.18753       18.64677       -0.834
       25.66156        6.47265       18.00431        0.417
       26.12659        6.71379       19.42469        0.417
       10.97910        5.06579       16.73161       -0.834
       11.42997        4.23315       16.87185        0.417
       10.97580        5.48484       17.59220        0.417
       22.79290       15.85269       17.21946       -0.834
       23.52562       16.29515       17.64793        0.417
       22.17287       16.55398       17.01948        0.417
       17.41748       25.11784       23.18943       -0.834
       18.27909       25.40093       22.88328        0.417
       17.04833       25.89117       23.61594        0.417
       21.57030       21.69697       29.55678       -0.834
       20.89909       21.01524       29.58783        0.417
       22.38669       21.23926       29.75737        0.417
       21.29473       22.45382       15.17683       -0.834
       20.41272       22.10639       15.30941        0.417
       21.86812       21.82843       15.61995        0.417
       26.47072       14.37325        5.80243       -0.834
       25.52183       14.46045        5.71158        0.417
       26.75919       14.00696        4.96646        0.417
       24.40702       20.11585       22.58034       -0.834
       24.02641       20.97156       22.77816        0.417
       23.96884       19.51352       23.18153        0.417
       16.75985       24.73997        9.44606       -0.834
       16.96033       25.08857       10.31469        0.417
       17.52948       24.22112        9.21220        0.417
       21.67343        8.99026       25.83859       -0.834
       20.76847        8.68040       25.80306        0.417
       21.73801        9.62483       25.12487        0.417
       16.07105        4.45270       13.55767       -0.834
       16.63545        5.09495       13.98800        0.417
       15.80698        3.85718       14.25900        0.417
       19.70381       27.47973       19.35379       -0.834
       19.03478       26.87491       19.67444        0.417
       20.25363       26.94681       18.77940        0.417
       18.43503        4.62908       22.70048       -0.834
       17.61274        4.33200       22.31085        0.417
       18.99009        4.84772       21.95193        0.417
        2.44873       19.38856       11.67825       -0.834
        1.65483       19.32630       11.14713        0.417
        2.91710       18.57165       11.50644        0.417
       19.09797       20.07017       12.37989       -0.834
       19.08754       19.84287       11.45012        0.417
       19.93879       20.50862       12.51033        0.417
       16.51868       11.96807        4.69510       -0.834
       17.11550       11.32814        5.08306        0.417
       16.98140       12.80281        4.76804        0.417
       20.01750       10.59588       11.16996       -0.834
       20.21608        9.93923       10.50242        0.417
       19.40502       11.19474       10.74279        0.417
       13.88293       26.11091       17.63634       -0.834
       14.71462       25.74733       17.33248        0.417
       13.34979       25.34504       17.84948        0.417
       11.03815        8.48557       18.65561       -0.834
       10.52982        9.18346       19.06887        0.417
       11.08841        8.73883       17.73389        0.417
       21.90202       18.39192        5.05775       -0.834
       21.02623       18.76016        5.17450        0.417
       22.36405       18.61035        5.86710        0.417
       10.72344       20.81914       28.71171       -0.834
       10.83452       20.63097       29.64363        0.417
        9.77591       20.81017       28.57634        0.417
       17.65339       23.61405       13.81691       -0.834