%Nproc=32
%Mem=120Gb
%chk=temp.chk
#p cam-b3lyp/6-31+G(d,p) nosymm charge Freq 

Calculation for S0 with freq for abs spect

0  1
 C         15.67001       17.52951       16.07990
 C         17.29263       15.73382       15.50664
 C         17.69386       15.59301       16.75284
 C         17.02629       16.30618       17.76575
 N         16.02668       17.20797       17.42578
 H         17.67125       15.12497       14.63812
 H         18.45954       14.96849       17.03646
 O         17.17321       16.07324       18.97937
 O         14.84122       18.33227       15.79511
 N         16.36929       16.69331       15.18925
 H         15.95504       16.77448       14.32139
 H         15.50575       17.72944       18.15479
 O         20.07661       18.53694       15.48653
 H         20.48727       19.33675       15.81501
 H         19.99880       17.97350       16.25641
 O         15.63535       19.84536       17.30217
 H         15.22876       19.69504       18.15559
 H         16.54893       19.58635       17.42264
 O         17.77011       12.75199       17.15505
 H         18.25208       11.92811       17.08319
 H         18.17846       13.20537       17.89257
 O         12.50619       16.72299       15.84733
 H         12.44191       15.80877       16.12357
 H         12.01993       16.75956       15.02365
 O         19.27466       14.37173       15.06135
 H         18.43261       14.08783       15.41712
 H         19.04520       14.94088       14.32675
 O         13.88779       19.71808       14.40215
 H         13.34127       18.94036       14.28949
 H         14.70355       19.38591       14.77689
 O         16.52884       19.12311       11.82442
 H         16.58954       18.31675       12.33660
 H         15.98336       19.70388       12.35489
 O         14.68177       14.86549       13.34025
 H         15.58685       14.55502       13.36587
 H         14.69111       15.58008       12.70346
 O         16.61793       13.04912       14.50097
 H         16.80778       13.12987       15.43567
 H         16.31583       12.14711       14.39448
 O         18.24650       18.95239       18.39441
 H         17.94907       18.99764       19.30310
 H         18.96327       18.31813       18.40780
 O         12.33848       13.84326       17.62019
 H         12.72962       13.12065       17.12919
 H         13.07758       14.40840       17.84509
 O         20.63146       17.42024       17.81464
 H         21.11369       18.00909       18.39510
 H         21.29297       16.81035       17.48803
 O         15.67415       14.62839       21.03061
 H         15.25975       15.37065       20.59066
 H         16.29729       15.02691       21.63816
 O         15.28020       12.04576       18.08708
 H         16.00360       12.20843       17.48172
 H         15.70464       11.87505       18.92788
 O         12.37183       14.36070       14.11962
 H         13.28853       14.57956       13.95233
 H         12.39524       13.45991       14.44253
 O         19.15217       16.11414       13.02205
 H         19.22547       17.05797       13.16363
 H         18.61569       16.03068       12.23373
 O         21.63328       15.31543       15.70449
 H         22.07845       14.52042       15.99776
 H         20.71972       15.05200       15.59385
 O         19.79373       14.12932       18.72481
 H         20.72827       14.29015       18.85521
 H         19.40477       14.25998       19.58960
 O         15.46852       22.11652       15.61072
 H         15.71700       21.37326       16.16032
 H         15.23790       21.72539       14.76807
 
       19.30233        4.38976        7.79953       -0.834
       19.67498        4.34049        8.67984        0.417
       20.00976        4.10109        7.22295        0.417
        7.06451        8.40741       14.06444       -0.834
        7.06989        8.88703       14.89279        0.417
        6.88848        7.50013       14.31359        0.417
       21.68817        6.50734       16.30598       -0.834
       21.56926        7.00130       17.11721        0.417
       21.14466        5.72739       16.41805        0.417
       17.55962       28.83474        8.54350       -0.834
       18.43935       29.20544        8.47359        0.417
       17.00872       29.42561        8.03008        0.417
       22.48868       13.97315       20.42588       -0.834
       23.04597       13.20644       20.29241        0.417
       23.00787       14.55319       20.98286        0.417
       22.47638        2.50155       16.84434       -0.834
       22.78191        1.60162       16.95840        0.417
       21.68658        2.55685       17.38228        0.417
       19.47864       22.53948       27.58980       -0.834
       19.63502       22.66304       28.52602        0.417
       18.58109       22.84322       27.45427        0.417
       19.78803       15.55641        1.71319       -0.834
       19.60544       14.81309        2.28796        0.417
       20.65825       15.85552        1.97680        0.417
        9.86268        7.54763       23.47003       -0.834
       10.25242        8.14224       24.11094        0.417
        9.22647        7.03776       23.97153        0.417
       15.10876       26.16851       17.89684       -0.834
       16.04534       26.15592       17.69961        0.417
       14.94784       25.34097       18.35018        0.417
       28.23495       22.70526       19.56032       -0.834
       27.35850       22.75519       19.17878        0.417
       28.81689       23.01439       18.86604        0.417
        6.85208       10.25276       22.05953       -0.834
        7.39038        9.69758       21.49540        0.417
        6.52952        9.66211       22.74021        0.417
       28.04557       22.69731       15.46759       -0.834
       27.23153       23.18475       15.34120        0.417
       27.91569       22.22192       16.28818        0.417
       14.51631       29.38008       22.88713       -0.834
       14.48293       29.11520       23.80635        0.417
       13.62048       29.26291       22.57093        0.417
       25.01976       15.56864       27.27568       -0.834
       25.25432       15.08196       28.06585        0.417
       25.74224       16.18370       27.14933        0.417
       17.55222       26.49542        9.85283       -0.834
       18.45728       26.34369        9.58066        0.417
       17.31834       27.33275        9.45232        0.417
       21.06112       21.76431       11.88390       -0.834
       21.17345       20.91481       12.31048        0.417
       21.94065       22.00478       11.59266        0.417
       17.80075       17.21622       26.12237       -0.834
       17.27554       18.01638       26.11107        0.417
       18.24975       17.23578       26.96750        0.417
       14.20876        6.00325        9.10552       -0.834
       15.05588        5.96928        9.54989        0.417
       13.64206        6.48762        9.70593        0.417
       16.65145       12.94328       30.72277       -0.834
       16.46106       12.04183       30.46321        0.417
       15.82231       13.40698       30.60555        0.417
       12.74232       28.81288        8.41673       -0.834
       13.04560       28.88568        9.32169        0.417
       12.60229       29.71754        8.13705        0.417
       27.38667        6.45250       21.01505       -0.834
       26.88128        5.92404       20.39734        0.417
       26.73165        6.98184       21.47001        0.417
       21.07987       11.26198       16.07328       -0.834
       21.47740       12.10551       16.28929        0.417
       20.56006       11.43559       15.28849        0.417
       14.19326       26.69608       26.03238       -0.834
       14.55696       25.81841       26.14924        0.417
       13.74212       26.88056       26.85620        0.417
       21.85763        7.93620       22.65355       -0.834
       21.68405        8.77714       22.23057        0.417
       21.13364        7.82338       23.26945        0.417
       12.35689       15.50970       26.06031       -0.834
       12.46344       14.67322       25.60734        0.417
       11.84139       15.29732       26.83838        0.417
       29.68120       23.60401       17.63266       -0.834
       30.58781       23.45541       17.36395        0.417
       29.38030       24.32175       17.07539        0.417
       16.71737       24.43184       14.54463       -0.834
       17.19967       24.89911       15.22674        0.417
       16.50138       23.58698       14.93933        0.417
       21.78328       20.10111       30.14551       -0.834
       21.55213       19.18559       29.98863        0.417
       21.59831       20.23955       31.07441        0.417
       20.59206       12.87871        2.34035       -0.834
       20.40260       12.99830        3.27096        0.417
       21.50053       12.57810        2.31709        0.417
       19.38858       18.56978        7.26559       -0.834
       18.97848       19.19781        7.86025        0.417
       18.65554       18.16147        6.80497        0.417
       13.11161       11.75247        5.86490       -0.834
       13.01777       12.69069        5.70009        0.417
       13.09664       11.35333        4.99502        0.417
       17.98137        8.14696       19.36992       -0.834
       17.16350        7.66274       19.48321        0.417
       18.16286        8.51695       20.23386        0.417
       23.62208       20.06109        3.78682       -0.834
       22.97130       19.84195        4.45368        0.417
       23.72617       21.01011        3.85580        0.417
       13.43517       19.77701        8.28155       -0.834
       14.28556       19.41978        8.02573        0.417
       13.36189       20.59624        7.79194        0.417
       15.27898       17.87854       23.66516       -0.834
       14.34588       17.66510       23.66876        0.417
       15.41345       18.38045       24.46905        0.417
       25.95372       16.86624       21.67813       -0.834
       25.15244       16.34409       21.71726        0.417
       26.63582       16.28459       22.01377        0.417
       16.50418       16.93672       29.34695       -0.834
       17.43302       17.13614       29.22978        0.417
       16.48929       16.02474       29.63729        0.417
       10.59875       15.32637       12.30327       -0.834
       10.32214       14.62903       11.70877        0.417
       11.24406       14.91168       12.87584        0.417
       15.66527        9.82921       15.02634       -0.834
       14.89578        9.60287       15.54872        0.417
       15.78284        9.08418       14.43698        0.417
       19.67572       19.43843       10.43448       -0.834
       19.70834       19.17885       11.35523        0.417
       20.57116       19.31659       10.11892        0.417
       14.39036       23.63645       19.29571       -0.834
       14.68433       23.96924       20.14369        0.417
       13.92451       22.82664       19.50411        0.417
       13.59736       17.27086        5.50358       -0.834
       14.18878       17.57320        4.81436        0.417
       13.93295       17.67672        6.30289        0.417
       25.48965       26.13606       19.19526       -0.834
       25.08603       26.21034       18.33050        0.417
       26.29245       26.65333       19.13063        0.417
       19.74303        7.89524       24.48699       -0.834
       19.87232        7.11162       25.02128        0.417
       19.42551        8.55579       25.10269        0.417
       20.80523        9.88537       21.10608       -0.834
       19.92988        9.59577       21.36324        0.417
       20.89026       10.75952       21.48669        0.417
       27.38411       24.30835       21.68363       -0.834
       27.52305       23.54351       21.12510        0.417
       26.43291       24.40850       21.72116        0.417
       21.10960       14.11370       26.09378       -0.834
       20.24057       13.76177       26.28657        0.417
       20.94536       15.00789       25.79429        0.417
       21.07425        8.36087       11.65584       -0.834
       20.25275        8.36669       12.14709        0.417
       21.69490        7.91393       12.23141        0.417
       18.89811       22.10192       21.62581       -0.834
       19.06804       21.87991       20.71035        0.417
       19.60980       22.69573       21.86484        0.417
       18.55275        4.90869       23.87191       -0.834
       18.71986        5.59781       23.22894        0.417
       18.52477        5.36618       24.71224        0.417
       20.21691       24.55398       16.84586       -0.834
       20.94446       25.17465       16.80489        0.417
       20.40897       23.91354       16.16089        0.417
       16.90695       21.11642        5.23395       -0.834
       15.96505       21.07864        5.06768        0.417
       16.98095       21.49351        6.11063        0.417
       25.31348       22.97850       15.72483       -0.834
       24.37543       23.14107       15.62547        0.417
       25.53492       23.36186       16.57349        0.417
       26.80214       17.52650       27.46641       -0.834
       27.47652       18.20473       27.42817        0.417
       26.28338       17.74725       28.23997        0.417
       11.74948       29.12228       22.05543       -0.834
       11.81504       28.21128       22.34179        0.417
       10.92272       29.43136       22.42579        0.417
        3.74949       16.23827       24.25151       -0.834
        3.59498       16.51425       25.15495        0.417
        2.99767       15.68585       24.03742        0.417
       19.10870       15.01681       21.22920       -0.834
       19.66305       15.79608       21.26991        0.417
       18.48009       15.13197       21.94180        0.417
       16.77853       26.16148       21.89867       -0.834
       16.59114       27.07555       21.68512        0.417
       15.92603       25.72750       21.86486        0.417
       15.93443       14.34393       27.94126       -0.834
       16.28733       14.19285       27.06441        0.417
       15.14301       13.80671       27.97728        0.417
       20.47056       10.27179       28.29354       -0.834
       20.05333       10.14671       29.14589        0.417
       21.07680       11.00028       28.42770        0.417
        8.82463       17.68601       19.60791       -0.834
        8.79490       18.60002       19.32520        0.417
        9.70281       17.38937       19.36908        0.417
       12.94150       26.97618       23.59625       -0.834
       13.39466       26.70205       24.39357        0.417
       13.17278       26.31096       22.94799        0.417
        7.55493       14.83171       14.44284       -0.834
        7.68321       14.36574       13.61661        0.417
        7.42180       14.13960       15.09052        0.417
       12.78494        3.66983       13.21709       -0.834
       12.94951        2.74080       13.05569        0.417
       13.55823        4.11440       12.86980        0.417
        4.67656       20.80456        8.58415       -0.834
        3.94537       21.39342        8.39753        0.417
        5.45686       21.34692        8.46915        0.417
        5.08831        9.75022       18.71142       -0.834
        5.11073       10.40610       19.40824        0.417
        4.38100        9.15652       18.96334        0.417
       12.48897        8.49141       13.69160       -0.834
       12.86616        9.26582       13.27419        0.417
       12.13681        8.81353       14.52133        0.417
       26.41546       10.18707        8.41437       -0.834
       27.35501       10.23162        8.59186        0.417
       26.00498       10.25256        9.27661        0.417
        5.48348       19.79696       23.50360       -0.834
        4.62107       19.75861       23.91713        0.417
        5.73210       20.72003       23.55220        0.417
       19.80259        8.18431       14.72044       -0.834
       20.26634        7.51555       15.22436        0.417
       19.42962        8.76737       15.38162        0.417
       25.05335       25.98970       16.24244       -0.834
       25.40196       26.87707       16.32776        0.417
       25.48801       25.63462       15.46706        0.417
       26.87102       24.42448       11.88422       -0.834
       27.24930       25.30336       11.91093        0.417
       25.97861       24.53727       12.21150        0.417
       14.45477        9.32008       11.32344       -0.834
       15.11796        9.46483       10.64856        0.417
       13.80171        8.76123       10.90220        0.417
       16.76298        8.31480       25.00522       -0.834
       17.57626        8.75135       25.25867        0.417
       16.87139        7.41237       25.30537        0.417
       15.52455       18.03037        3.38901       -0.834
       15.63875       17.20082        2.92528        0.417
       15.11750       18.61079        2.74584        0.417
       25.62517       19.84905       14.15137       -0.834
       25.00450       19.64916       14.85211        0.417
       26.16895       20.55252       14.50586        0.417
        9.40926       14.97288       21.12202       -0.834
        9.56277       14.03036       21.18773        0.417
        8.93869       15.08235       20.29569        0.417
       24.06890       25.75097       12.58355       -0.834
       23.49955       26.43618       12.23347        0.417
       23.49401       24.99334       12.69178        0.417
        5.40363       21.38346       17.03898       -0.834
        5.81017       20.54573       16.81723        0.417
        6.13809       21.95443       17.26435        0.417
        9.25730        5.16684       15.83185       -0.834
        8.51347        4.92035       15.28214        0.417
        9.95126        5.38895       15.21111        0.417
       10.64991       18.90101       16.37352       -0.834
       10.02163       18.18196       16.30667        0.417
       11.50473       18.48337       16.26819        0.417
       25.33107       10.49699       11.79061       -0.834
       24.42631       10.80550       11.84032        0.417
       25.29910        9.60353       12.13256        0.417
       24.60055       10.45832       27.42399       -0.834
       24.85416        9.58806       27.73151        0.417
       23.81363       10.30786       26.90020        0.417
       21.80347       27.40324       12.93997       -0.834
       21.51393       27.89169       13.71057        0.417
       21.96534       28.07459       12.27716        0.417
       15.52081        6.24558       19.55221       -0.834
       15.55428        5.52189       20.17781        0.417
       15.06576        5.88436       18.79150        0.417
       10.61582       21.42862       17.20427       -0.834
       10.53376       20.62510       16.69061        0.417
       11.10351       22.02671       16.63798        0.417
       25.47144        7.83542       15.48068       -0.834
       24.97446        7.17279       15.96043        0.417
       24.93479        8.62598       15.53784        0.417
       12.68558        5.01724       21.73106       -0.834
       12.97982        5.92807       21.72417        0.417
       12.76779        4.73159       20.82118        0.417
       13.97174       14.60055        5.29254       -0.834
       13.86043       15.55020        5.33725        0.417
       13.50198       14.34091        4.49999        0.417
        4.93606       15.77003       13.58763       -0.834
        5.27775       15.54811       12.72148        0.417
        5.64485       15.54471       14.19019        0.417
        8.80926       18.59258        5.89631       -0.834
        9.47494       17.90689        5.84215        0.417
        8.07370       18.17789        6.34709        0.417
       11.39940        6.03713       13.95720       -0.834
       11.96273        6.80878       13.89810        0.417
       12.00065        5.29535       13.89026        0.417
        6.89311       21.86750       21.37609       -0.834
        6.84947       20.97558       21.03139        0.417
        6.72342       21.77119       22.31319        0.417
        8.65709       16.42060       16.60950       -0.834
        8.29074       15.89684       15.89697        0.417
        8.61545       15.84719       17.37480        0.417
       11.89777       17.96383       12.66757       -0.834
       11.79223       18.49169       11.87608        0.417
       11.49809       17.12183       12.44956        0.417
       12.64642       17.32504       23.89008       -0.834
       12.28694       17.12430       23.02595        0.417
       12.44137       16.55482       24.42013        0.417
        7.03119       11.16244       26.17916       -0.834
        7.85649       10.69045       26.06813        0.417
        6.76038       11.38514       25.28849        0.417
       23.67430       29.11652       21.57275       -0.834
       24.60008       28.96769       21.38037        0.417
       23.22448       28.36762       21.18154        0.417
       25.00790       13.04038       14.55471       -0.834
       25.81145       12.77207       15.00029        0.417
       25.30261       13.63824       13.86773        0.417
        1.68606       14.00844       13.07085       -0.834
        1.50786       14.36437       12.20034        0.417
        2.27700       14.64453       13.47385        0.417
       26.19790       19.83477       25.63972       -0.834
       27.05137       20.11691       25.96867        0.417
       26.16181       18.89896       25.83768        0.417
       19.47758       22.98339        9.24808       -0.834
       19.19880       22.86105       10.15558        0.417
       20.29735       22.49381        9.18078        0.417
        7.84808       19.38139       10.52020       -0.834
        8.25044       19.97618       11.15310        0.417
        6.91606       19.39398       10.73794        0.417
       17.32111       14.44340       25.63069       -0.834
       17.22987       15.35572       25.90559        0.417
       17.99341       14.08436       26.20978        0.417
       12.30512        8.09721        6.38685       -0.834
       13.09157        8.04107        5.84411        0.417
       12.36041        8.95833        6.80115        0.417
        4.18648       16.83292        9.10851       -0.834
        3.62931       17.26302        9.75720        0.417
        4.24159       17.45904        8.38659        0.417
       28.37640       12.60803        9.33164       -0.834
       27.49928       12.68528        9.70704        0.417
       28.58180       11.67506        9.39163        0.417
       19.57628       14.56118        4.70796       -0.834
       19.93196       15.42754        4.51013        0.417
       18.68210       14.73083        5.00442        0.417
       20.44289       17.13276        4.57985       -0.834
       21.11786       17.36868        3.94346        0.417
       20.53885       17.77686        5.28138        0.417
       20.52678        5.26233       21.71902       -0.834
       20.74287        5.78840       20.94909        0.417
       21.14087        4.52871       21.68847        0.417
       13.73859       26.25360        7.65360       -0.834
       13.37521       27.12224        7.82577        0.417
       13.70439       25.80715        8.49962        0.417
       10.39931       12.62157        4.94789       -0.834
        9.85257       12.53791        4.16666        0.417
        9.98670       13.32009        5.45589        0.417
       19.57656       22.56823       18.55286       -0.834
       19.51195       23.39156       18.06892        0.417
       18.89100       22.01520       18.17817        0.417
        8.26320        3.84160       18.39047       -0.834
        8.28360        4.73066       18.74458        0.417
        9.00488        3.80681       17.78638        0.417
       21.54043       12.65294       30.88198       -0.834
       21.95820       12.70584       30.02238        0.417
       21.99792       11.94001       31.32769        0.417
        8.07481       22.51592       15.34616       -0.834
        8.35060       22.24781       16.22268        0.417
        8.88095       22.80574       14.91909        0.417
       11.67928        4.30653        8.42150       -0.834
       12.57448        4.64530        8.41236        0.417
       11.13557        5.05890        8.18796        0.417
        7.16665       25.24903       22.21139       -0.834
        6.40844       25.29213       21.62873        0.417
        7.24842       24.32086       22.43059        0.417
       22.40000       21.15998       19.25110       -0.834
       21.66611       21.69910       19.54605        0.417
       23.09451       21.33134       19.88712        0.417
       20.50724       12.45819       22.05793       -0.834
       21.13316       13.06564       21.66363        0.417
       19.66746       12.68667       21.65944        0.417
       12.50360        7.57568       10.15680       -0.834
       11.64751        7.16979       10.29321        0.417
       12.34495        8.25648        9.50291        0.417
       13.82578       13.15504       22.31129       -0.834
       13.79022       12.61018       21.52510        0.417
       14.54049       13.76971       22.14517        0.417
       23.41802        7.71212       13.10491       -0.834
       23.39984        8.12360       13.96896        0.417
       24.31168        7.38104       13.01552        0.417
        7.24085       22.67832        8.25267       -0.834
        7.56436       23.41679        7.73669        0.417
        7.99721       22.09858        8.34238        0.417
        3.86459       16.55690       21.50068       -0.834
        3.77676       16.59805       22.45295        0.417
        4.76099       16.84577       21.32965        0.417
        7.16283       23.62509       26.65722       -0.834
        8.10730       23.47127       26.63393        0.417
        7.07276       24.51306       27.00309        0.417
       12.94773       21.85008       20.48257       -0.834
       12.83498       22.70307       20.90202        0.417
       13.00124       21.23017       21.20995        0.417
       25.50560       14.41325       12.27893       -0.834
       25.06977       14.89756       11.57770        0.417
       26.31691       14.89633       12.43591        0.417
       12.44060       19.94121       22.32188       -0.834
       12.10975       19.10826       22.65798        0.417
       11.66788       20.38069       21.96693        0.417
        4.05339       13.66827       22.14904       -0.834
        4.28156       14.52059       21.77793        0.417
        3.19856       13.80538       22.55734        0.417
       24.44193       19.10679       16.45877       -0.834
       24.29086       18.51001       17.19175        0.417
       24.95241       19.82403       16.83454        0.417
       26.23211       20.69009       18.09563       -0.834
       26.08523       20.36313       18.98318        0.417
       26.06423       21.63055       18.15548        0.417
       22.41223        8.07417        6.82670       -0.834
       22.92018        8.57278        7.46672        0.417
       21.65607        7.75314        7.31801        0.417
        6.12557        7.03615       17.80310       -0.834
        5.70220        6.87067       16.96071        0.417
        6.34100        7.96860       17.78435        0.417
       23.15300       11.45794       13.12147       -0.834
       22.32102       11.82500       13.42032        0.417
       23.81644       12.05674       13.46428        0.417
       23.81449       11.30966       19.58802       -0.834
       23.18809       11.47954       18.88445        0.417
       24.67210       11.42465       19.17874        0.417
       14.88412        7.92325        4.59608       -0.834
       14.96080        8.76402        4.14502        0.417
       14.83438        7.27679        3.89191        0.417
       23.66691       15.54098       22.25400       -0.834
       23.82284       14.98954       23.02070        0.417
       23.10459       16.24569       22.57560        0.417
       23.33426       27.70300       24.19234       -0.834
       24.04923       27.11684       23.94439        0.417
       23.26998       28.32356       23.46639        0.417
       18.33434        8.45799       22.18541       -0.834
       18.96680        8.19376       22.85354        0.417
       17.66207        8.93887       22.66816        0.417
        6.74254       18.63021       16.25460       -0.834
        7.02465       19.22931       15.56342        0.417
        7.40489       17.93918       16.25833        0.417
       11.41495       20.56030       10.73282       -0.834
       11.00908       19.72823       10.48960        0.417
       11.91758       20.81718        9.95977        0.417
        8.66167       21.21431        4.93160       -0.834
        8.67734       20.76372        4.08723        0.417
        8.88685       20.53692        5.56931        0.417
       11.46241        9.89660       15.98316       -0.834
       10.63824       10.38296       15.96238        0.417
       12.13852       10.57220       16.03494        0.417
        4.48230       12.93332       12.25338       -0.834
        3.90296       12.75257       11.51315        0.417
        3.91984       13.36011       12.89970        0.417
        7.78693        9.60866       16.91416       -0.834
        8.37224        9.31537       17.61245        0.417
        8.36920        9.99144       16.25790        0.417
       11.61471       19.80305       28.40528       -0.834
       12.55713       19.66435       28.31124        0.417
       11.23558       19.41923       27.61460        0.417
       21.51606       27.87593       19.84201       -0.834
       21.69911       28.30701       19.00720        0.417
       20.77028       28.35624       20.20167        0.417