%Nproc=32
%Mem=120Gb
%chk=temp.chk
#p cam-b3lyp/6-31+G(d,p) nosymm charge Freq 

Calculation for S0 with freq for abs spect

0  1
 C         15.67001       17.52951       16.07990
 C         17.29263       15.73382       15.50664
 C         17.69386       15.59301       16.75284
 C         17.02629       16.30618       17.76575
 N         16.02668       17.20797       17.42578
 H         17.67125       15.12497       14.63812
 H         18.45954       14.96849       17.03646
 O         17.17321       16.07324       18.97937
 O         14.84122       18.33227       15.79511
 N         16.36929       16.69331       15.18925
 H         15.95504       16.77448       14.32139
 H         15.50575       17.72944       18.15479
 O         20.59060       15.78107       15.12465
 H         20.39277       16.25515       14.31697
 H         21.19674       16.35257       15.59604
 O         15.24126       20.91687       13.71134
 H         15.33668       21.34212       14.56356
 H         16.04044       20.39981       13.61031
 O         15.55333       13.04174       14.14755
 H         15.02559       13.82548       14.30075
 H         15.92462       13.16929       13.27457
 O         14.18562       13.62974       18.85546
 H         14.53529       13.58541       19.74540
 H         14.87362       13.25115       18.30815
 O         19.61629       20.04817       16.04953
 H         19.07724       20.83813       16.08976
 H         20.49004       20.34039       16.30914
 O         15.78742       17.42384       10.98962
 H         16.30438       17.27702       11.78172
 H         15.48066       18.32723       11.06727
 O         18.76638       13.64320       13.40860
 H         17.93060       14.10978       13.40873
 H         19.29793       14.10283       14.05854
 O         19.08240       18.47314       18.29981
 H         19.92635       18.10955       18.56775
 H         19.25990       18.89882       17.46105
 O         18.01683       20.18821       12.99482
 H         18.49477       20.10446       12.16972
 H         18.56143       19.73038       13.63516
 O         16.39960       14.72159       12.15283
 H         15.48384       15.00005       12.16121
 H         16.64519       14.73215       11.22773
 O         15.32261       17.27956       21.88126
 H         15.97211       17.70246       22.44300
 H         15.81561       17.00726       21.10729
 O         19.59884       12.53142       16.96563
 H         19.07908       12.13232       16.26791
 H         18.95749       12.77582       17.63284
 O         13.27524       19.18378       16.27432
 H         12.67233       19.78461       16.71218
 H         14.08315       19.68679       16.17189
 O         15.20855       21.38043       16.52907
 H         15.42381       21.15136       17.43319
 H         15.12404       22.33385       16.53667
 O         17.66441       13.72340       19.38586
 H         18.17420       14.50717       19.59090
 H         18.11896       13.01529       19.84215
 O         13.90836       15.24805       13.25812
 H         14.32932       16.09516       13.40446
 H         13.05476       15.32751       13.68389
 O         18.03767       11.55927       15.11881
 H         18.54540       11.60263       14.30853
 H         17.22070       12.01441       14.91474
 O         17.80886       16.27678       20.53664
 H         18.32019       17.01585       20.86610
 H         17.93732       15.58689       21.18762
 O         12.68169       18.64142       19.59781
 H         13.20888       17.90299       19.90281
 H         13.26092       19.39923       19.67815
 O         12.11299       14.63715       17.60035
 H         12.22200       15.58796       17.61799
 H         12.82802       14.30351       18.14224
 O         14.83938       20.34763       19.30498
 H         15.03094       19.44736       19.04220
 H         15.48282       20.54068       19.98685
 
       21.68588       19.82736       25.96184       -0.834
       21.46941       20.61571       25.46397        0.417
       22.40135       20.09633       26.53803        0.417
        4.33275        7.86322       12.33862       -0.834
        4.97244        7.87395       13.05061        0.417
        3.58567        7.38208       12.69445        0.417
        9.50925       25.66535       20.11527       -0.834
        8.60735       25.88324       20.35051        0.417
        9.74630       24.95222       20.70814        0.417
        3.50071       18.01404        8.45692       -0.834
        2.95292       18.78238        8.29628        0.417
        4.35549       18.37397        8.69364        0.417
        8.08226       23.40658       27.36928       -0.834
        9.02349       23.23877       27.32293        0.417
        7.91401       24.02757       26.66055        0.417
       22.09876       19.60561        4.35549       -0.834
       21.35239       19.08649        4.65498        0.417
       22.77425       19.45890        5.01762        0.417
       24.03564       22.71005       17.76878       -0.834
       23.69688       22.87718       16.88927        0.417
       23.40426       23.12997       18.35295        0.417
       26.67976       14.88922       11.43407       -0.834
       26.88399       15.19928       12.31633        0.417
       26.51312       13.95277       11.54138        0.417
        6.47566       11.38640       12.61220       -0.834
        6.25567       12.31441       12.69369        0.417
        7.02626       11.20256       13.37330        0.417
       11.85701       25.68998       22.72568       -0.834
       11.86376       26.62987       22.54455        0.417
       12.22514       25.29100       21.93731        0.417
       20.26564       17.46273       12.88211       -0.834
       19.68170       17.42591       12.12455        0.417
       20.67892       18.32421       12.82490        0.417
       14.21119        4.71971       15.97041       -0.834
       13.26999        4.80616       15.81911        0.417
       14.53711        5.61970       15.97543        0.417
       11.47363        6.67658       13.20978       -0.834
       12.10920        7.24367       12.77310        0.417
       11.22840        7.15580       14.00126        0.417
       11.23774       13.79484        6.57191       -0.834
       10.34643       13.44900        6.61883        0.417
       11.12576       14.71551        6.33515        0.417
       17.47585       26.33824       24.09285       -0.834
       17.38871       25.53306       24.60306        0.417
       16.57518       26.62304       23.93822        0.417
        7.88320       21.36246       12.74547       -0.834
        7.97302       22.31085       12.65211        0.417
        7.70825       21.22852       13.67697        0.417
       13.78331        7.96119       20.54579       -0.834
       13.67686        7.94696       21.49694        0.417
       13.02232        7.48610       20.21200        0.417
       10.64900       28.34449       23.27322       -0.834
       11.35147       28.70128       23.81680        0.417
       10.03824       27.95238       23.89727        0.417
       19.54979       27.00078       22.54129       -0.834
       19.82712       27.88324       22.78743        0.417
       18.89346       26.76395       23.19655        0.417
       10.11472       22.03217       10.17272       -0.834
        9.81120       21.23164       10.60082        0.417
       10.71357       21.72749        9.49097        0.417
        9.15208       17.21650       14.89052       -0.834
        8.75076       16.69411       15.58499        0.417
        9.35221       18.05516       15.30625        0.417
        7.17416       17.37593       24.53409       -0.834
        6.93584       18.30200       24.57687        0.417
        8.13135       17.37406       24.53693        0.417
       18.06256        6.44760       23.56690       -0.834
       18.61854        5.82459       24.03486        0.417
       18.62426        7.20908       23.42245        0.417
       14.31179       30.25474        9.67759       -0.834
       13.41493       30.58904        9.68860        0.417
       14.50926       30.06714       10.59521        0.417
       21.53989       29.30879       17.58831       -0.834
       21.20571       28.94938       16.76650        0.417
       20.75545       29.51590       18.09624        0.417
       21.45130       22.12500       13.35742       -0.834
       20.63060       22.61629       13.39386        0.417
       21.29615       21.44703       12.69976        0.417
       24.74561       10.29113       18.81007       -0.834
       23.88452       10.35301       18.39663        0.417
       24.78789        9.39486       19.14347        0.417
       24.18580        7.78486        8.88534       -0.834
       24.41582        7.94717        9.80020        0.417
       23.97587        6.85153        8.85262        0.417
       25.11655       25.36890       11.67949       -0.834
       24.47953       25.04266       11.04388        0.417
       24.63252       26.01420       12.19480        0.417
       12.75386       18.45498        8.69375       -0.834
       12.75339       17.60569        9.13526        0.417
       12.71146       19.09490        9.40434        0.417
        2.72512       14.46943       20.70854       -0.834
        2.17272       14.83204       21.40108        0.417
        3.45420       14.05883       21.17338        0.417
       24.91497        7.15810       24.41060       -0.834
       25.50099        7.81150       24.79254        0.417
       24.59353        6.65677       25.15999        0.417
       19.45983        7.60954        8.47035       -0.834
       19.45192        6.68497        8.71799        0.417
       19.17342        8.07149        9.25827        0.417
       19.15077       13.28033       10.58598       -0.834
       18.92496       13.33205       11.51472        0.417
       18.30693       13.24957       10.13518        0.417
       28.35160       18.22971       24.30732       -0.834
       28.60076       18.71017       23.51782        0.417
       27.49399       18.58356       24.54297        0.417
       13.37384       27.01515       25.86697       -0.834
       14.00860       26.64451       26.48011        0.417
       12.52369       26.85958       26.27840        0.417
       28.51151       14.00605       25.69272       -0.834
       28.13599       14.61544       26.32822        0.417
       27.75701       13.54053       25.33181        0.417
       27.03717       11.37379       18.97876       -0.834
       27.19177       11.88734       18.18592        0.417
       26.35364       10.75090       18.73174        0.417
       12.22748        3.88212       13.48992       -0.834
       11.37282        3.54469       13.22170        0.417
       12.11003        4.83139       13.52638        0.417
       24.18129       21.24219       26.34171       -0.834
       24.00517       21.75911       25.55558        0.417
       24.47411       21.88299       26.98968        0.417
       22.36533       10.17463       14.73383       -0.834
       22.41349       10.25765       13.78146        0.417
       23.27826       10.17833       15.02153        0.417
       21.08358       25.95875       14.19342       -0.834
       20.35022       25.90485       13.58064        0.417
       20.73838       25.60384       15.01263        0.417
       23.85993        8.06772       20.01530       -0.834
       22.92353        8.10427       19.82026        0.417
       23.95889        7.29643       20.57347        0.417
       17.96451       18.18672        8.17781       -0.834
       17.03171       18.03369        8.32846        0.417
       17.99055       18.85384        7.49188        0.417
       15.04659       24.11375       22.42871       -0.834
       14.52206       23.32385       22.55966        0.417
       14.45887       24.83313       22.65963        0.417
       13.81198       11.31873       22.78804       -0.834
       14.60616       11.76565       22.49516        0.417
       14.11909       10.68182       23.43323        0.417
       16.49287       28.07021       18.51260       -0.834
       15.88900       28.36424       17.83060        0.417
       16.70672       28.86429       19.00243        0.417
       20.88421       24.79108        9.64633       -0.834
       21.61410       24.51525       10.20076        0.417
       21.29929       25.23091        8.90438        0.417
       13.08448       26.01103       14.53985       -0.834
       12.25737       25.71876       14.92287        0.417
       12.82784       26.49285       13.75358        0.417
       24.30720       16.87152       24.62747       -0.834
       23.70594       17.29374       24.01392        0.417
       24.86748       17.58133       24.94129        0.417
       28.70577       14.04596        8.47193       -0.834
       28.54219       14.41261        7.60300        0.417
       28.80889       14.80997        9.03927        0.417
       15.23687       26.38917       20.28550       -0.834
       14.81729       27.22943       20.47031        0.417
       15.98330       26.61095       19.72882        0.417
        3.57767       14.05771       10.06344       -0.834
        3.99485       13.19711       10.02393        0.417
        3.77225       14.45787        9.21595        0.417
       20.65130       11.75197       23.05725       -0.834
       20.42064       11.52542       23.95819        0.417
       21.55659       11.45667       22.95980        0.417
       10.41521       21.36357       23.86452       -0.834
        9.69085       20.85203       23.50416        0.417
       11.18815       21.04794       23.39635        0.417
       17.22313        7.05037       20.87836       -0.834
       17.92518        7.46824       20.37960        0.417
       17.67218        6.60025       21.59388        0.417
       11.64090       12.61215       20.66536       -0.834
       11.15258       13.40441       20.44154        0.417
       12.15307       12.85572       21.43646        0.417
        6.53956       10.42631       17.68284       -0.834
        5.64765       10.35253       17.34328        0.417
        6.56221       11.28049       18.11424        0.417
       12.31896       25.64103        9.44642       -0.834
       12.01270       26.10810       10.22378        0.417
       13.26707       25.77261        9.44538        0.417
       23.17966       18.26694       22.28759       -0.834
       22.87990       19.12504       22.58766        0.417
       23.23489       18.35139       21.33572        0.417
       15.68058       19.71899        6.74023       -0.834
       14.95982       20.09086        6.23185        0.417
       15.30934       19.57072        7.60996        0.417
       15.04283        5.88127       26.42155       -0.834
       15.26450        4.95113       26.46559        0.417
       15.58027        6.22247       25.70673        0.417
       16.46081       23.23479       12.56265       -0.834
       15.85534       22.53318       12.80217        0.417
       15.99447       24.04057       12.78506        0.417
       20.39221        6.76880       12.91800       -0.834
       21.29613        7.03022       13.09353        0.417
       20.28672        5.94055       13.38609        0.417
       14.19627        3.13751       23.03069       -0.834
       15.05446        3.02189       23.43859        0.417
       14.36167        3.71043       22.28194        0.417
       12.28787       20.16799       22.15234       -0.834
       13.17139       20.08003       22.50994        0.417
       12.06166       19.28762       21.85232        0.417
       17.20134       16.02587        5.71438       -0.834
       17.07261       16.74283        5.09338        0.417
       16.37628       15.97539        6.19704        0.417
       11.01410        5.91984        8.65939       -0.834
       11.41206        5.25002        8.10333        0.417
       11.75696        6.37437        9.05663        0.417
        9.69010       19.74721       14.96235       -0.834
       10.29833       20.01321       14.27276        0.417
        8.99172       20.40108       14.93171        0.417
        6.60724        7.56023       13.91911       -0.834
        6.30753        7.29465       14.78852        0.417
        7.06131        8.39016       14.06494        0.417
       12.71714       16.24293       22.07946       -0.834
       13.47814       16.11886       21.51226        0.417
       12.98386       15.87637       22.92251        0.417
       27.20573       24.37074       22.67693       -0.834
       27.94704       24.51421       22.08861        0.417
       26.51990       24.94980       22.34442        0.417
        3.91702       11.67687       18.43474       -0.834
        3.90777       11.56092       19.38485        0.417
        3.06596       11.34861       18.14462        0.417
       12.96431        7.64578        9.55648       -0.834
       12.90729        8.17248       10.35371        0.417
       12.56983        8.19383        8.87805        0.417
       13.02368        4.09071       18.51403       -0.834
       13.70167        4.27623       17.86430        0.417
       13.46357        3.55408       19.17339        0.417
       20.47396       24.33093        4.54330       -0.834
       21.23511       24.81497        4.86360        0.417
       20.84091       23.66126        3.96613        0.417
       18.05587       25.83734       18.31808       -0.834
       18.23498       25.63063       19.23537        0.417
       17.54969       26.64915       18.34943        0.417
       20.17284       22.41966       18.43897       -0.834
       20.69477       21.65224       18.20469        0.417
       19.52908       22.49616       17.73473        0.417
        1.76165       17.95014       19.42179       -0.834
        2.27241       18.33416       18.70913        0.417
        1.86563       18.56357       20.14920        0.417
       18.23079        8.83382       12.82327       -0.834
       18.89513        8.14492       12.84069        0.417
       18.65627        9.56630       12.37755        0.417
       23.35428       24.68310        5.64504       -0.834
       23.72105       25.11371        4.87284        0.417
       23.27272       23.76380        5.39113        0.417
        4.61369       23.70132       19.82565       -0.834
        4.25113       23.73869       18.94056        0.417
        4.79421       24.61423       20.04978        0.417
        5.14507       14.52938       17.57312       -0.834
        4.34608       14.76354       17.10089        0.417
        4.97380       13.65150       17.91405        0.417
       27.80183       16.32580       21.23865       -0.834
       28.58225       15.79507       21.39832        0.417
       28.11776       17.22914       21.25839        0.417
       12.81290       12.55806        8.37674       -0.834
       11.94827       12.50876        8.78443        0.417
       12.63541       12.55219        7.43616        0.417
        3.63248        8.36585       19.00234       -0.834
        3.39537        8.71127       19.86297        0.417
        4.56592        8.16595       19.07283        0.417
       10.52481       15.30520       20.60780       -0.834
       11.14038       15.70647       21.22121        0.417
       10.30035       16.00847       19.99849        0.417
       29.62173       13.57480       16.68451       -0.834
       30.17933       12.91081       16.27902        0.417
       29.99085       13.69654       17.55925        0.417
       23.15104       14.94765        4.83516       -0.834
       23.89460       15.54847        4.78660        0.417
       22.84291       15.01966        5.73854        0.417
        9.98654       18.54663       28.65194       -0.834
        9.79824       19.39129       28.24289        0.417
        9.93574       17.91563       27.93396        0.417
       18.87934       13.60364        1.78169       -0.834
       19.23490       14.15374        2.47969        0.417
       19.16527       12.71786        2.00502        0.417
        5.04743       18.36442       20.75257       -0.834
        5.86483       17.94433       21.02015        0.417
        4.49578       18.33578       21.53429        0.417
       25.87819       16.19009        6.84688       -0.834
       25.43620       15.88768        7.64025        0.417
       26.79444       16.28911        7.10553        0.417
       16.25350       13.63418        9.29021       -0.834
       15.48938       13.19977        9.66919        0.417
       16.02846       13.75393        8.36758        0.417
       16.72398       24.32625       29.17194       -0.834
       17.29144       23.59746       28.92079        0.417
       17.14277       24.70041       29.94709        0.417
       18.82485       22.00658        4.28532       -0.834
       19.39765       22.70801        4.59536        0.417
       18.21059       22.44196        3.69426        0.417
       20.02570       11.60050       28.19677       -0.834
       19.60853       11.43939       29.04308        0.417
       20.63138       12.32318       28.36147        0.417
       10.96228       22.43656        4.41505       -0.834
       10.56154       23.30500        4.37705        0.417
       11.15139       22.29994        5.34339        0.417
        8.03955       24.16325       11.87083       -0.834
        8.74855       24.31294       11.24541        0.417
        8.10336       24.89429       12.48544        0.417
       16.92689       17.20484        3.20863       -0.834
       16.18707       17.73178        2.90660        0.417
       17.00896       16.50983        2.55560        0.417
       22.22041       17.31608       16.50171       -0.834
       21.48531       17.38333       17.11108        0.417
       22.96153       17.69122       16.97737        0.417
       23.21677       16.72278       12.48634       -0.834
       22.89911       16.33674       11.67007        0.417
       22.44541       16.75619       13.05214        0.417
       25.53407       15.52663       18.15544       -0.834
       26.18762       15.38671       17.47023        0.417
       25.20997       14.64966       18.36064        0.417
        9.66431       10.67577       21.49640       -0.834
        9.47851       11.59153       21.28879        0.417
       10.54676       10.68799       21.86702        0.417
       21.41847       24.62810       23.25979       -0.834
       20.84382       24.75253       22.50446        0.417
       22.01093       25.37956       23.23696        0.417
       11.23243       15.94954       13.82152       -0.834
       10.61546       16.66053       13.99495        0.417
       10.71574       15.15130       13.93133        0.417
        9.44689       23.93355       22.90603       -0.834
        9.73347       23.14666       23.36962        0.417
       10.25778       24.39574       22.69374        0.417
       10.17741        3.96965       21.05186       -0.834
       10.40230        4.87366       20.83179        0.417
       10.41780        3.46637       20.27395        0.417
       11.91983       23.88935       24.69912       -0.834
       12.09011       24.55622       24.03390        0.417
       11.68242       23.10776       24.20013        0.417
       24.44811       21.91039        9.65431       -0.834
       23.72815       21.53128        9.15015        0.417
       24.71150       21.21482       10.25684        0.417
       26.91339       12.47766       24.28851       -0.834
       27.03027       12.48435       23.33850        0.417
       27.09967       11.57501       24.54688        0.417
       16.71490        9.15659        9.77285       -0.834
       17.16840        9.87784       10.20916        0.417
       16.08727        8.83979       10.42242        0.417
       20.29610       11.11409       25.69868       -0.834
       19.45706       10.68407       25.53339        0.417
       20.28692       11.30574       26.63645        0.417
        4.16470        7.80582       15.72071       -0.834
        4.34648        8.73792       15.60075        0.417
        3.62166        7.76660       16.50798        0.417
       16.87297        6.41115        7.51741       -0.834
       17.41076        7.19183        7.64993        0.417
       16.30236        6.63480        6.78214        0.417
       19.21435       14.56168        7.18917       -0.834
       18.91155       14.78643        6.30938        0.417
       18.44298       14.67450        7.74459        0.417
        5.97240        5.91972       16.22729       -0.834
        5.36036        6.65047       16.31469        0.417
        5.66123        5.43627       15.46199        0.417
       19.19103        3.93231       20.47101       -0.834
       19.92702        4.41946       20.84147        0.417
       19.11194        3.15730       21.02718        0.417
       13.15606       21.64803        2.82346       -0.834
       12.38383       22.02364        3.24630        0.417
       13.63859       22.40431        2.48963        0.417
       10.59258       22.80931       16.12804       -0.834
       11.25328       22.23448       16.51440        0.417
        9.83365       22.72452       16.70515        0.417
       22.08416       20.14204       18.01441       -0.834
       22.99124       20.06094       17.71967        0.417
       21.96990       19.42592       18.63919        0.417
       11.51780       11.90091        4.63297       -0.834
       12.29737       11.44216        4.94611        0.417
       11.38220       12.60447        5.26768        0.417
       14.69832       10.34429        3.02366       -0.834
       14.98143       11.25423        3.11362        0.417
       14.22010       10.32258        2.19477        0.417
       23.00171       23.75115       11.08072       -0.834
       23.36093       23.09197       10.48685        0.417
       23.04859       23.34531       11.94636        0.417
        2.56569       12.23453       14.67537       -0.834
        2.36427       12.66006       13.84195        0.417
        2.17089       12.80295       15.33663        0.417
        4.01014       21.77561       23.86947       -0.834
        4.41607       21.71829       23.00450        0.417
        3.83108       22.70826       23.98920        0.417
        7.64369       21.47272       15.45468       -0.834
        6.70476       21.42046       15.63330        0.417
        7.98416       22.05943       16.13002        0.417
       23.55430       26.20112       24.85097       -0.834
       24.28537       25.59791       24.98479        0.417
       23.57800       26.40317       23.91564        0.417
       18.59101       22.54222       27.49010       -0.834
       19.42751       22.19066       27.79490        0.417
       18.10302       21.77507       27.19083        0.417
        7.72646       26.09933       14.28572       -0.834
        7.23426       25.43014       14.76128        0.417
        7.08595       26.78849       14.10954        0.417
       20.43341       16.12350       22.02400       -0.834
       21.16323       15.67855       22.45482        0.417
       19.67834       15.94361       22.58413        0.417
       13.26903        8.95410       12.49933       -0.834
       14.21590        8.82336       12.55012        0.417
       13.10269        9.71998       13.04887        0.417
       13.25275       15.10934       24.45239       -0.834
       12.47772       15.19004       25.00831        0.417
       13.66103       14.28847       24.72752        0.417
       17.87246       26.42768        7.60205       -0.834
       18.31840       27.20875        7.92962        0.417
       17.50226       26.69742        6.76156        0.417
       20.35829       21.68877        8.20579       -0.834
       19.82190       21.29330        7.51869        0.417
       20.17170       22.62573        8.14650        0.417
       11.11941       15.11219       26.38148       -0.834
       10.99295       14.86837       27.29843        0.417
       11.38816       16.03037       26.41217        0.417
        9.82311       24.72491        9.66016       -0.834
       10.69609       24.87079        9.29566        0.417
        9.62221       23.81417        9.44471        0.417
       15.89374       16.40442        8.22787       -0.834
       15.03471       16.01408        8.06683        0.417
       15.86942       16.66676        9.14810        0.417
       17.43433       14.92717       22.73450       -0.834
       18.00534       14.30054       23.17893        0.417
       17.43910       15.69932       23.30019        0.417
       19.86219       15.19988        3.56863       -0.834
       20.79799       15.38482        3.48926        0.417
       19.53421       15.87316        4.16475        0.417
       10.11263       19.99857        6.00500       -0.834
       10.90524       19.50926        6.22542        0.417
       10.15938       20.11637        5.05623        0.417
       18.78724       28.80368        8.01066       -0.834
       19.63892       28.77974        8.44688        0.417
       18.31725       29.51800        8.44086        0.417
       10.76974       30.46189       13.68148       -0.834
       10.02277       31.04814       13.56076        0.417
       10.44935       29.60429       13.40201        0.417
        8.94246        5.75197       14.23882       -0.834
        8.35574        6.22171       13.64610        0.417
        9.81688        6.06789       14.01118        0.417
       22.98925       25.15527       27.23553       -0.834
       22.91912       25.48698       26.34039        0.417
       23.28618       25.90747       27.74764        0.417
        8.23900       22.80781       17.73060       -0.834
        7.98565       22.52357       18.60881        0.417
        8.06757       23.74951       17.72436        0.417
       14.58130        5.08265       21.07122       -0.834
       14.67976        6.03473       21.08049        0.417
       15.02697        4.80307       20.27157        0.417
       14.63192       30.47255       20.01038       -0.834