%Nproc=32
%Mem=120Gb
%chk=temp.chk
#p cam-b3lyp/6-31+G(d,p) nosymm charge Freq 

Calculation for S0 with freq for abs spect

0  1
 C         15.67001       17.52951       16.07990
 C         17.29263       15.73382       15.50664
 C         17.69386       15.59301       16.75284
 C         17.02629       16.30618       17.76575
 N         16.02668       17.20797       17.42578
 H         17.67125       15.12497       14.63812
 H         18.45954       14.96849       17.03646
 O         17.17321       16.07324       18.97937
 O         14.84122       18.33227       15.79511
 N         16.36929       16.69331       15.18925
 H         15.95504       16.77448       14.32139
 H         15.50575       17.72944       18.15479
 O         17.21860       11.64348       18.00052
 H         16.88487       12.49994       17.73345
 H         18.12132       11.62787       17.68257
 O         15.00800       14.18228       20.28100
 H         14.49927       14.98581       20.17251
 H         15.34999       13.99487       19.40683
 O         19.54119       17.46279       12.58664
 H         18.85322       18.11352       12.44707
 H         19.30883       17.04161       13.41420
 O         15.44059       14.29054       13.39970
 H         16.33037       14.58437       13.20426
 H         14.99191       14.30502       12.55427
 O         13.71428       17.92740       13.75910
 H         13.67797       18.77799       14.19667
 H         12.96423       17.44581       14.10799
 O         15.28638       20.34433       17.67237
 H         15.48349       21.20971       18.03085
 H         15.04352       19.81851       18.43446
 O         12.82369       13.66583       17.86343
 H         11.89732       13.50173       18.03988
 H         12.84481       13.97125       16.95651
 O         13.16113       14.26750       15.29480
 H         13.96185       14.72051       15.03050
 H         13.19568       13.42985       14.83287
 O         18.27727       17.84883       20.03287
 H         18.76821       17.02722       20.01989
 H         17.41314       17.61745       19.69231
 O         13.00657       20.01219       15.87943
 H         12.25380       19.98298       16.46996
 H         13.75280       20.19405       16.45067
 O         17.77712       21.39427       16.51051
 H         18.49661       21.04572       17.03689
 H         17.00179       20.93051       16.82679
 O         15.32086       11.80062       14.74627
 H         14.43078       11.72937       15.09120
 H         15.31044       12.59898       14.21830
 O         11.81529       17.33093       18.24823
 H         11.47952       18.21248       18.41063
 H         11.67355       17.18878       17.31232
 O         14.57737       18.88188       19.87253
 H         14.15570       18.06646       20.14376
 H         14.91626       19.25849       20.68466
 O         11.50244       16.44501       15.11396
 H         11.82678       15.55381       15.24362
 H         10.58416       16.33281       14.86818
 O         16.01376       20.01568       13.71098
 H         15.15901       20.14988       13.30149
 H         16.26182       20.88054       14.03764
 O         18.88018       12.35252       14.08960
 H         17.95504       12.59117       14.14782
 H         19.17308       12.72797       13.25926
 O         17.32868       19.01406       11.64492
 H         16.97730       19.23476       12.50750
 H         16.56679       18.72658       11.14181
 O         19.38280       20.08697       18.49632
 H         19.67483       20.82074       19.03717
 H         19.08236       19.43035       19.12467
 O         13.37460       16.47109       20.40782
 H         12.63013       16.73741       20.94732
 H         13.07121       16.58500       19.50715
 O         21.57201       17.62902       15.44297
 H         20.63299       17.80436       15.38187
 H         21.64360       16.67722       15.37088
 
       19.60385       25.81463        4.29899       -0.834
       20.13194       25.65971        3.51582        0.417
       19.68433       25.00695        4.80634        0.417
       22.28756        7.31707       13.04597       -0.834
       22.45152        8.25769       12.97838        0.417
       21.94647        7.19598       13.93210        0.417
       13.35586       26.83142        9.89851       -0.834
       12.82325       26.76880       10.69137        0.417
       14.18007       27.21892       10.19305        0.417
       29.01068       24.00407       18.13290       -0.834
       28.69513       23.17093       17.78284        0.417
       29.71583       24.26215       17.53928        0.417
        1.65865       14.74967       14.98782       -0.834
        1.71990       14.29289       15.82677        0.417
        0.72331       14.75365       14.78446        0.417
       22.58861       21.73260       22.72395       -0.834
       21.87953       22.13845       23.22266        0.417
       22.15460       21.07260       22.18334        0.417
       15.03532        7.71497        5.87263       -0.834
       15.79340        7.53884        6.42992        0.417
       14.32156        7.22001        6.27486        0.417
       17.80452       16.74270       27.37995       -0.834
       18.65567       16.41257       27.66768        0.417
       17.84982       17.68685       27.53085        0.417
       27.82601       12.95046       23.15119       -0.834
       28.75486       13.08712       22.96469        0.417
       27.73897       12.00290       23.25507        0.417
       22.36275       22.39918       14.77080       -0.834
       21.45707       22.43770       14.46341        0.417
       22.46300       21.51024       15.11134        0.417
       20.58929       22.29119       11.97336       -0.834
       19.92935       22.66288       11.38808        0.417
       20.09545       22.00803       12.74288        0.417
       23.32710        6.72069       21.91320       -0.834
       22.88007        6.03886       21.41170        0.417
       24.22181        6.39611       22.01503        0.417
       16.91201        9.13592       25.82045       -0.834
       16.41578        8.35373       25.57929        0.417
       16.40436        9.53356       26.52789        0.417
        8.58549       20.52226       11.97904       -0.834
        8.16518       19.99839       11.29704        0.417
        9.18032       19.91343       12.41693        0.417
        6.14166        5.71118       12.15290       -0.834
        6.30618        6.65337       12.11467        0.417
        6.22376        5.49069       13.08073        0.417
        5.11867       20.55201       17.73038       -0.834
        4.84148       19.63583       17.72639        0.417
        4.51625       20.98236       18.33710        0.417
       15.91621       14.84535       22.91429       -0.834
       15.60768       14.72194       22.01663        0.417
       15.12349       14.79981       23.44891        0.417
        9.76466       21.55025       15.99200       -0.834
        8.87563       21.77578       16.26585        0.417
       10.32913       21.96353       16.64531        0.417
       31.87676       16.55229       15.60573       -0.834
       31.53007       15.92652       16.24169        0.417
       31.22245       17.25025       15.57460        0.417
       22.91387       24.04165       25.82772       -0.834
       22.28356       23.52091       25.32995        0.417
       22.57908       24.03087       26.72444        0.417
       15.54370        7.33704       15.54618       -0.834
       14.74924        7.79760       15.81638        0.417
       16.16276        8.03387       15.32841        0.417
       13.41339       30.80519       10.64629       -0.834
       13.52913       30.72147       11.59277        0.417
       13.82072       30.01831       10.28417        0.417
       23.57818       23.00862       10.70724       -0.834
       22.86692       23.14617       11.33287        0.417
       23.25239       22.32693       10.11955        0.417
       12.56482       10.73341        4.18105       -0.834
       12.41112       11.18634        3.35191        0.417
       11.75314       10.25383        4.34659        0.417
       17.78510       16.19259       31.56528       -0.834
       18.71440       16.06862       31.37219        0.417
       17.33430       15.59411       30.96960        0.417
        3.06993       12.37408       19.64252       -0.834
        3.66629       12.93519       20.13824        0.417
        3.37324       11.48405       19.82165        0.417
        6.54797       10.26143       18.95623       -0.834
        6.66850       10.14277       19.89837        0.417
        6.18368        9.42937       18.65422        0.417
        9.83682       10.24088        4.70391       -0.834
        9.02125       10.61374        5.03864        0.417
        9.61114        9.91245        3.83360        0.417
        3.47297       12.88904       13.62643       -0.834
        3.70219       12.60562       14.51150        0.417
        2.80817       13.56548       13.75567        0.417
       25.72638       15.97614       24.90165       -0.834
       26.29838       16.54445       25.41747        0.417
       26.02643       16.08860       23.99968        0.417
       22.82341        2.65571       20.51708       -0.834
       22.37404        3.44084       20.20423        0.417
       22.38530        1.93318       20.06736        0.417
       20.72783       13.95163        9.25763       -0.834
       21.49073       14.50595        9.09351        0.417
       20.97382       13.09516        8.90809        0.417
       12.69766        8.85952       14.23815       -0.834
       12.42697        9.33814       13.45465        0.417
       12.60083        7.93715       14.00134        0.417
       22.78142       18.42394       24.00734       -0.834
       22.53994       18.65806       23.11116        0.417
       23.37050       19.12434       24.28787        0.417
        7.07838       18.54598       23.55870       -0.834
        7.97244       18.41005       23.87241        0.417
        6.74931       19.27743       24.08112        0.417
       30.20278       19.44397       16.08365       -0.834
       31.01389       19.93515       15.95295        0.417
       29.77509       19.45471       15.22739        0.417
       21.36602       12.15382        6.54787       -0.834
       21.24999       11.69002        7.37712        0.417
       20.59160       11.92441        6.03418        0.417
       23.33830       14.91905       21.04034       -0.834
       23.74740       14.47727       21.78445        0.417
       22.60525       14.35300       20.79858        0.417
       26.78539       14.99896       20.21456       -0.834
       26.46670       14.09806       20.15932        0.417
       26.04115       15.53411       19.93900        0.417
       14.43758        5.81238       13.03823       -0.834
       14.80150        6.51060       13.58255        0.417
       15.19565        5.28564       12.78505        0.417
       15.65161       12.13101        8.01847       -0.834
       16.50160       12.53372        7.84075        0.417
       15.57418       11.43571        7.36518        0.417
       14.37499       19.73030       30.94296       -0.834
       15.03248       19.34298       31.52082        0.417
       13.62177       19.89224       31.51100        0.417
        6.77353       25.84550       16.10660       -0.834
        6.16217       26.34690       16.64610        0.417
        6.21407       25.33507       15.52120        0.417
       23.03970       25.25405       19.29347       -0.834
       23.45711       26.06271       19.59023        0.417
       22.33276       25.54607       18.71798        0.417
       17.48964       13.08405        5.38831       -0.834
       18.10206       12.38393        5.16246        0.417
       17.72704       13.33155        6.28196        0.417
        3.15848       10.17276       13.52313       -0.834
        4.01558        9.75106       13.58457        0.417
        3.35590       11.10353       13.41859        0.417
       17.60523        4.07144       21.82341       -0.834
       16.84614        4.51939       21.45011        0.417
       17.91732        3.50166       21.12043        0.417
       25.96936       14.95337       11.75140       -0.834
       26.55505       14.88276       12.50519        0.417
       26.43651       15.51916       11.13668        0.417
       13.31361       24.47491        4.69268       -0.834
       13.45005       25.42228        4.70301        0.417
       12.49154       24.34567        5.16568        0.417
       29.71249       16.30316       24.55340       -0.834
       29.43225       16.56966       25.42901        0.417
       28.90971       16.00732       24.12416        0.417
       11.85976       26.23923       12.12288       -0.834
       12.45803       26.41220       12.84979        0.417
       11.12229       25.77883       12.52337        0.417
        7.27953       17.41655       27.18541       -0.834
        7.26907       16.51019       26.87779        0.417
        6.41105       17.55131       27.56465        0.417
       18.71643       21.94245        2.77863       -0.834
       18.23679       22.49171        2.15855        0.417
       18.04666       21.62042        3.38190        0.417
       28.85267       11.55272       15.81676       -0.834
       29.13716       10.65262       15.65826        0.417
       29.43481       12.08705       15.27654        0.417
       21.58160        4.41695       13.99227       -0.834
       22.07200        4.84421       13.28999        0.417
       22.02530        4.68995       14.79529        0.417
       18.29509       13.96482       22.09643       -0.834
       17.39275       14.27580       22.16931        0.417
       18.51730       13.66438       22.97768        0.417
       27.80214       13.82412       13.81402       -0.834
       28.55364       14.29333       13.45166        0.417
       27.66071       13.09486       13.21036        0.417
       24.38075       22.47794       17.36001       -0.834
       24.04659       23.31792       17.67467        0.417
       24.01101       21.83193       17.96182        0.417
        6.79820       17.40229       15.78799       -0.834
        6.19233       17.03462       15.14458        0.417
        6.24428       17.63691       16.53254        0.417
       10.05741       14.12928       11.50283       -0.834
        9.54701       14.33597       10.71989        0.417
       10.96225       14.08270       11.19408        0.417
       20.09392       16.40130        3.97375       -0.834
       20.90926       15.91003        4.07426        0.417
       19.48896       15.78149        3.56622        0.417
        6.77910       24.28661       11.11687       -0.834
        7.18871       23.85902       11.86895        0.417
        6.66478       23.58563       10.47516        0.417
       11.15963       19.83345       10.89031       -0.834
       11.43608       19.88939       11.80501        0.417
       10.87178       20.71984       10.67197        0.417
       16.67944       10.43708        3.25692       -0.834
       16.05090       10.52346        3.97365        0.417
       16.54216        9.55063        2.92285        0.417
       25.23983       14.70523        8.00005       -0.834
       26.13102       14.37186        7.89567        0.417
       24.77134       14.38300        7.23004        0.417
        8.11425       21.04853       25.05007       -0.834
        8.41042       21.71639       25.66852        0.417
        8.32183       21.41032       24.18853        0.417
       20.42554       15.85387       20.91298       -0.834
       20.66112       14.98022       20.60078        0.417
       20.47976       15.79067       21.86655        0.417
       23.49397       13.66092        6.04837       -0.834
       23.22639       14.22929        5.32616        0.417
       22.71554       13.13958        6.24456        0.417
        9.55050       11.95845       13.11175       -0.834
        8.68016       11.72028       12.79235        0.417
        9.68171       12.85547       12.80455        0.417
       25.79662       25.77966       22.61922       -0.834
       25.39579       25.05438       22.14013        0.417
       25.27428       25.85774       23.41753        0.417
        4.33937       17.80204       17.66035       -0.834
        4.88429       17.09294       18.00165        0.417
        3.62648       17.88312       18.29395        0.417
       26.02685       18.89081       17.59114       -0.834
       25.25521       18.90502       18.15736        0.417
       26.76610       18.81720       18.19473        0.417
        9.51011       14.82260       22.39336       -0.834
       10.08884       14.90286       21.63517        0.417
        9.74906       15.55870       22.95665        0.417
       23.91886       21.43653        6.37226       -0.834
       23.28494       21.31060        7.07832        0.417
       23.49578       21.06105        5.60009        0.417
       12.45083        4.06620       18.10276       -0.834
       13.10018        4.64083       18.50819        0.417
       11.76713        4.65908       17.79087        0.417
       12.42694       11.80111       14.93514       -0.834
       12.47239       11.13074       14.25340        0.417
       11.54845       11.70915       15.30396        0.417
        8.00968        9.03084       13.95829       -0.834
        8.50499        8.73506       14.72210        0.417
        7.22489        9.43867       14.32438        0.417
       11.13444       13.31079        4.53199       -0.834
       11.99154       13.04050        4.20250        0.417
       10.50704       12.84150        3.98211        0.417
        9.76833        7.98700       11.70332       -0.834
        9.08546        8.14048       12.35629        0.417
       10.45734        7.52482       12.18070        0.417
       20.28959       14.89009       30.91134       -0.834
       21.19719       14.92316       30.60903        0.417
       20.34992       14.59566       31.82013        0.417
       11.65545       10.54885       12.35780       -0.834
       11.86704       10.89919       11.49251        0.417
       10.86937       11.02569       12.62412        0.417
       13.24623       24.19219       16.05108       -0.834
       12.60121       23.73012       15.51565        0.417
       12.76254       24.45853       16.83296        0.417
       24.31886       11.21949        7.35157       -0.834
       24.29429       11.40707        8.28989        0.417
       24.17539       12.06843        6.93329        0.417
       14.33616       28.00308       22.78934       -0.834
       15.03482       28.14712       23.42760        0.417
       14.04557       28.88286       22.54898        0.417
       10.19871       16.65492        8.13181       -0.834
       10.89946       16.72102        8.78052        0.417
       10.59620       16.18971        7.39573        0.417
       17.38205       12.88071       25.88162       -0.834
       18.01728       12.35080       25.40004        0.417
       17.84908       13.15767       26.66995        0.417
       20.41072       25.24447       12.76604       -0.834
       19.73073       24.90643       13.34877        0.417
       20.51245       24.56697       12.09755        0.417
       23.01353       10.05993       13.83091       -0.834
       23.55221       10.21552       14.60670        0.417
       23.42498       10.58435       13.14394        0.417
       17.44237       14.02365        0.99341       -0.834
       17.34072       14.41577        1.86067        0.417
       17.53377       14.77041        0.40161        0.417
       18.87931       20.81212       22.92955       -0.834
       18.80540       19.85836       22.96286        0.417
       18.45822       21.11372       23.73450        0.417
       15.89797       28.59430       18.66384       -0.834
       15.32924       27.89313       18.34583        0.417
       16.16430       29.06428       17.87364        0.417
        7.54025       14.83170       28.71658       -0.834
        7.12380       14.66354       29.56187        0.417
        8.13916       15.55924       28.88462        0.417
       12.25928       25.50712       18.81161       -0.834
       11.58641       26.17046       18.65843        0.417
       12.18034       25.29554       19.74178        0.417
       22.41763        6.33401       16.05698       -0.834
       22.24253        7.05994       16.65582        0.417
       23.36797        6.22325       16.08553        0.417
        7.15450       26.43486       22.48727       -0.834
        6.65521       25.74255       22.05409        0.417
        7.04782       26.25872       23.42206        0.417
       10.38293       28.02019       10.61345       -0.834
       10.80589       27.42766       11.23494        0.417
       10.54705       28.89483       10.96602        0.417
       24.12491        5.53917       11.65742       -0.834
       24.25467        4.76560       12.20603        0.417
       23.43913        6.03685       12.10267        0.417
       14.18477       22.19274       13.00357       -0.834
       14.75087       22.59101       13.66475        0.417
       13.37484       22.70134       13.04325        0.417
       18.66380        9.62386       28.28435       -0.834
       18.50991        9.49884       29.22079        0.417
       17.81430        9.89379       27.93548        0.417
       27.44555       17.03311       14.15218       -0.834
       27.93479       17.82673       13.93530        0.417
       26.77889       16.96778       13.46842        0.417
       21.34339        8.24845       28.28236       -0.834
       21.62919        7.85036       29.10460        0.417
       20.45075        8.54637       28.45748        0.417
        8.66969       25.26900       18.22036       -0.834
        7.93383       25.33700       17.61199        0.417
        8.55220       26.00399       18.82221        0.417
       10.91128        3.33391       15.77586       -0.834
       11.20673        4.11147       15.30220        0.417
        9.99885        3.52008       15.99730        0.417
       28.18644       24.01239       22.16739       -0.834
       28.05768       24.92990       21.92690        0.417
       27.49203       23.54332       21.70477        0.417
       17.24113       19.43697       27.84919       -0.834
       16.97624       20.10931       28.47690        0.417
       16.44003       19.22837       27.36861        0.417
       27.65542       26.68172       18.80207       -0.834
       27.81401       26.68017       19.74604        0.417
       27.72966       25.76275       18.54474        0.417
       22.76136       28.80551       18.84115       -0.834
       22.02337       28.96318       19.43000        0.417
       23.47768       28.54274       19.41913        0.417
        8.32143       15.13292       25.68923       -0.834
        8.32837       14.31558       26.18741        0.417
        7.98227       14.88662       24.82868        0.417
       15.87465       20.16826       21.86369       -0.834
       16.29157       20.99938       21.63641        0.417
       16.47674       19.75996       22.48579        0.417
       25.43325       16.24029       16.25000       -0.834
       24.88493       16.68780       16.89443        0.417
       25.49560       16.85553       15.51936        0.417
       25.25486       13.71443       22.87982       -0.834
       26.20285       13.70010       22.74818        0.417
       25.14191       14.02712       23.77743        0.417
       16.50633       21.55686       29.30471       -0.834
       16.79776       22.45694       29.45012        0.417
       16.30818       21.22436       30.18016        0.417
       27.31952       16.69427       22.66675       -0.834
       27.45312       17.55657       22.27326        0.417
       27.02274       16.14333       21.94245        0.417
        5.65795       16.35226       22.65202       -0.834
        6.10508       17.11789       23.01273        0.417
        6.36301       15.74115       22.43832        0.417
       24.93654       27.85069       20.34614       -0.834
       25.56099       28.01934       19.64055        0.417
       25.38487       27.22948       20.92001        0.417
       25.79334        9.01125        6.25127       -0.834
       25.29616        9.73339        6.63539        0.417
       26.70314        9.30793        6.27306        0.417
       17.36771       16.80943        9.58212       -0.834
       17.66168       16.17821       10.23891        0.417
       16.86276       17.45402       10.07786        0.417
       19.01635       18.18962       22.69700       -0.834
       18.70028       17.97355       21.81971        0.417
       18.64389       17.51111       23.26014        0.417
        5.40210        9.71497       15.14066       -0.834
        5.14235        9.13009       15.85247        0.417
        5.16999       10.58982       15.45209        0.417
       18.80325        9.47779       12.50012       -0.834
       18.96491       10.13636       13.17568        0.417
       18.86488        8.64110       12.96098        0.417
        5.76738       21.26556       14.87707       -0.834
        5.00574       20.79325       14.54083        0.417
        5.73275       21.13330       15.82446        0.417
        7.01946        6.91526       22.25468       -0.834
        7.29620        6.32964       21.54992        0.417
        6.21164        6.52468       22.58799        0.417
       14.44107       25.81209       26.30278       -0.834
       13.78868       25.64550       25.62240        0.417
       14.21386       26.67597       26.64676        0.417
        7.46341       11.82177       17.00772       -0.834
        6.93275       12.59667       16.82288        0.417
        6.96552       11.34231       17.66987        0.417
       17.80253       14.69561       12.03734       -0.834
       17.75710       14.00194       11.37932        0.417
       18.71559       14.69443       12.32465        0.417
       12.11426       13.43223       26.51580       -0.834
       11.62232       14.25151       26.57065        0.417
       13.00466       13.70159       26.29025        0.417
       18.53595       21.69548       10.00429       -0.834
       17.78386       21.91118       10.55572        0.417
       18.52700       20.73991        9.94929        0.417
        9.41040       11.80813       24.88783       -0.834
        9.07446       12.22037       25.68372        0.417
        8.63154       11.47134       24.44490        0.417
       22.78262       14.54970       29.01974       -0.834
       22.75102       13.63113       28.75241        0.417
       23.69799       14.80296       28.90060        0.417
       30.28301       15.43648       17.51838       -0.834
       29.50496       15.01147       17.15751        0.417
       30.09417       15.52989       18.45210        0.417
       16.23169        7.14325       20.59645       -0.834
       16.42329        8.01575       20.25255        0.417
       16.46239        7.19490       21.52399        0.417
       26.13497       22.67174       11.37950       -0.834
       25.24684       22.49027       11.07205        0.417
       26.05104       22.73670       12.33080        0.417
       10.72422       12.62075       28.66977       -0.834
        9.93900       12.46995       28.14354        0.417
       11.42762       12.72012       28.02823        0.417
       14.90825       25.75633       14.26471       -0.834
       14.38065       25.22017       14.85666        0.417
       14.58084       26.64683       14.39140        0.417
       20.45611        6.26567        8.15980       -0.834
       20.94793        7.07068        8.32196        0.417
       19.76280        6.27095        8.81975        0.417
       11.53960       23.31177       14.04976       -0.834
       11.10582       22.50330       14.32257        0.417
       10.86512       23.79766       13.57519        0.417
       24.65181       10.07849       27.80106       -0.834
       24.27940       10.95830       27.86004        0.417
       24.36797        9.64335       28.60500        0.417
       10.88618       12.66125        7.27154       -0.834
       11.13258       12.92840        6.38602        0.417
       11.54503       13.06537        7.83620        0.417
       15.59770        6.91415       25.70522       -0.834
       15.47799        7.12938       26.63023        0.417
       15.61572        5.95741       25.68183        0.417
       19.07457       23.01904       14.45287       -0.834
       18.78162       22.42316       15.14232        0.417
       18.37001       23.66246       14.37642        0.417
       27.19764        5.33093       16.33583       -0.834
       26.84547        6.09811       16.78709        0.417
       27.09166        5.53003       15.40558        0.417
       14.18828       23.21728       22.78028       -0.834
       13.54648       22.73150       23.29830        0.417
       14.77002       23.61340       23.42904        0.417
       17.17769        9.75131       15.09670       -0.834
       17.56896       10.23703       15.82279        0.417
       16.47586       10.31920       14.77863        0.417
       26.07999       19.14807        8.99283       -0.834
       26.58200       19.65530        8.35492        0.417
       25.28511       19.66181        9.13589        0.417
       24.75499       10.02975       15.85593       -0.834
       25.05498        9.21861       16.26618        0.417
       25.32794       10.70685       16.21580        0.417
       15.44264       25.42158       21.56336       -0.834
       14.82567       26.15263       21.59793        0.417
       14.90118       24.64402       21.69933        0.417
       26.23748       22.02329       19.29940       -0.834
       27.00991       21.80741       18.77692        0.417
       25.63617       22.43611       18.67953        0.417
        8.09116       22.44337       22.46792       -0.834