%Nproc=32
%Mem=120Gb
%chk=temp.chk
#p cam-b3lyp/6-31+G(d,p) nosymm charge Freq 

Calculation for S0 with freq for abs spect

0  1
 C         15.67001       17.52951       16.07990
 C         17.29263       15.73382       15.50664
 C         17.69386       15.59301       16.75284
 C         17.02629       16.30618       17.76575
 N         16.02668       17.20797       17.42578
 H         17.67125       15.12497       14.63812
 H         18.45954       14.96849       17.03646
 O         17.17321       16.07324       18.97937
 O         14.84122       18.33227       15.79511
 N         16.36929       16.69331       15.18925
 H         15.95504       16.77448       14.32139
 H         15.50575       17.72944       18.15479
 O         19.37036       16.87815       12.20660
 H         19.17777       17.80474       12.06313
 H         19.16920       16.73153       13.13086
 O         13.91954       13.82992       12.86755
 H         14.25141       13.39974       13.65562
 H         14.42069       13.43919       12.15173
 O         16.88890       19.31511       20.17067
 H         16.47321       20.13716       20.43081
 H         16.34929       18.63516       20.57404
 O         14.87324       17.21333       21.27715
 H         15.08304       17.30872       22.20619
 H         15.10794       16.30882       21.06977
 O         20.03057       19.59912       16.65167
 H         20.81879       19.55763       17.19317
 H         19.97901       20.51327       16.37254
 O         19.37027       14.89342       18.95217
 H         19.32878       15.84733       18.88466
 H         20.02203       14.63483       18.30058
 O         13.89941       20.71323       17.19332
 H         14.17320       21.52209       16.76087
 H         14.10726       20.85282       18.11719
 O         21.12448       16.70241       15.74713
 H         20.19646       16.93622       15.76579
 H         21.55537       17.46154       15.35433
 O         12.71275       17.32666       19.36879
 H         13.41680       17.20016       20.00483
 H         12.08810       17.89993       19.81309
 O         13.09948       12.99520       17.58694
 H         13.67932       12.34989       17.99141
 H         13.64069       13.77922       17.49399
 O         13.85899       18.27226       14.07645
 H         13.71619       19.20332       13.90625
 H         13.47856       18.12550       14.94246
 O         17.42626       21.52244       14.44018
 H         17.23847       20.66205       14.06509
 H         16.68893       22.06890       14.16826
 O         16.07951       14.87172       21.25032
 H         15.94500       14.27683       20.51259
 H         16.99497       14.74306       21.49854
 O         15.56367       17.08578       12.12226
 H         14.85714       17.21254       12.75549
 H         15.13686       17.15900       11.26862
 O         16.29600       19.48837       13.42890
 H         16.13731       18.54460       13.44746
 H         15.82608       19.79554       12.65363
 O         12.85144       18.10947       16.61860
 H         12.94624       19.05322       16.74738
 H         12.87904       17.74270       17.50231
 O         15.16549       11.79855       18.79429
 H         15.45771       11.26462       19.53304
 H         15.96382       12.21321       18.46724
 O         17.94149       12.56676       18.20352
 H         18.59751       11.93168       17.91622
 H         18.44360       13.35693       18.40292
 O         18.23928       14.21952       13.47381
 H         18.86726       14.30153       12.75607
 H         17.38355       14.31833       13.05644
 O         18.69543       17.59748       18.50772
 H         19.07119       18.19260       17.85897
 H         18.12889       18.15293       19.04320
 O         15.63562       12.31609       14.60796
 H         16.36856       11.71723       14.75077
 H         15.50961       12.74705       15.45331
 
       11.61324       11.28205       24.36373       -0.834
       10.71798       11.09381       24.08212        0.417
       11.51206       11.71664       25.21057        0.417
       20.64249        6.25311       15.51499       -0.834
       20.67058        5.29734       15.47085        0.417
       20.86516        6.45806       16.42309        0.417
        5.22900       22.94377       20.33131       -0.834
        4.37402       23.34760       20.48013        0.417
        5.06765       22.00370       20.41173        0.417
       14.39770        2.89904       21.18928       -0.834
       15.26068        2.55540       21.42039        0.417
       14.51306        3.26845       20.31381        0.417
       21.40684       19.51717       29.88188       -0.834
       21.80959       20.22948       30.37849        0.417
       20.59812       19.32191       30.35524        0.417
       15.95525        9.55412        4.30630       -0.834
       15.76886       10.30641        4.86805        0.417
       15.41098        9.69271        3.53119        0.417
        8.86859       13.47054        4.05764       -0.834
        8.59674       12.55418        4.10876        0.417
        8.59528       13.84893        4.89332        0.417
        9.02572        7.37748       19.35788       -0.834
        9.13603        7.19203       18.42532        0.417
        9.30195        6.57296       19.79686        0.417
       12.95260       21.49147        5.46891       -0.834
       13.75794       21.37996        5.97410        0.417
       12.27556       21.64621        6.12762        0.417
        8.29466       27.43733       18.80214       -0.834
        9.16091       27.51718       19.20148        0.417
        8.02802       26.53647       18.98544        0.417
       15.68713       23.93484       13.46953       -0.834
       16.60500       24.15422       13.30947        0.417
       15.28447       23.93891       12.60116        0.417
       19.43309        4.28686       19.78580       -0.834
       20.25660        4.63771       20.12486        0.417
       19.44931        3.36075       20.02721        0.417
       18.85335       12.98769        4.39982       -0.834
       18.80490       13.78557        4.92639        0.417
       18.34604       13.18809        3.61324        0.417
       28.30510       18.88878        9.37043       -0.834
       29.16848       18.75448        8.97956        0.417
       27.70136       18.43953        8.77890        0.417
       10.57700       20.65191       21.14292       -0.834
       10.97244       20.97739       21.95157        0.417
       10.72245       19.70617       21.16838        0.417
       25.20705       19.50476        6.17246       -0.834
       25.35632       20.44293        6.28986        0.417
       24.41194       19.32368        6.67371        0.417
       18.39895       28.84287       14.79266       -0.834
       18.42070       28.29097       14.01089        0.417
       19.04354       29.52911       14.61997        0.417
       17.80028        7.51827       23.54875       -0.834
       16.88794        7.24399       23.64173        0.417
       18.23906        6.76332       23.15662        0.417
       16.36576       30.61047       11.78643       -0.834
       15.94135       30.84556       12.61156        0.417
       17.03371       31.28426       11.65962        0.417
        8.37724       23.33608       18.61285       -0.834
        7.53361       23.56512       19.00280        0.417
        9.02502       23.62429       19.25593        0.417
       10.49587        6.03635        7.10013       -0.834
       11.25205        6.62319        7.09433        0.417
       10.09872        6.16518        7.96147        0.417
        3.01142       12.81384       19.87370       -0.834
        3.68857       12.15634       20.03306        0.417
        2.49190       12.45393       19.15482        0.417
       17.67727       14.01157       25.70649       -0.834
       17.00954       13.57016       25.18159        0.417
       17.69063       14.90862       25.37278        0.417
       27.40184       24.30410       13.76372       -0.834
       27.14081       25.19016       13.51274        0.417
       26.65276       23.75716       13.52714        0.417
       17.23745        6.43437       19.95530       -0.834
       17.94178        6.22867       20.56998        0.417
       17.47715        5.97199       19.15219        0.417
       12.51075       21.17461        8.98725       -0.834
       13.20206       21.70160        9.38800        0.417
       11.82845       21.80640        8.76022        0.417
        5.54873        9.33215       16.32573       -0.834
        5.12144        9.35796       15.46958        0.417
        6.22819       10.00447       16.27521        0.417
       21.19241       24.72244       22.17542       -0.834
       21.82835       25.00628       21.51872        0.417
       21.69466       24.66904       22.98852        0.417
        3.72378       21.64820       23.11131       -0.834
        4.32720       21.20039       23.70425        0.417
        2.93791       21.10173       23.11093        0.417
        2.55077       18.50166       20.97284       -0.834
        3.35352       17.98321       20.91774        0.417
        2.65098       19.17175       20.29669        0.417
        6.34737       14.25701       16.51630       -0.834
        5.41941       14.06623       16.65310        0.417
        6.39685       14.57371       15.61437        0.417
        9.30043       25.53220        8.89753       -0.834
        8.89802       26.17055        9.48643        0.417
        8.57373       24.97953        8.60996        0.417
       17.90753       18.16185        6.96622       -0.834
       18.46684       18.86172        6.62920        0.417
       18.24763       17.98411        7.84313        0.417
       18.34190       24.08641       12.71530       -0.834
       18.50291       23.59211       11.91158        0.417
       19.19374       24.12102       13.15048        0.417
       15.21334       10.12272       21.34590       -0.834
       14.37202       10.44138       21.67281        0.417
       15.85110       10.76392       21.65951        0.417
       17.26818        7.40689        5.37929       -0.834
       16.73999        7.26665        6.16515        0.417
       16.92603        8.21714        5.00160        0.417
       28.73646       15.97508        9.73795       -0.834
       27.89467       16.40450        9.58556        0.417
       28.61527       15.08512        9.40700        0.417
       27.75650       11.85719       17.09867       -0.834
       27.11747       11.75469       17.80392        0.417
       27.53817       11.16509       16.47453        0.417
       15.36312        4.49816       14.74018       -0.834
       15.92953        5.16075       14.34472        0.417
       14.95247        4.05825       13.99582        0.417
       22.03926       23.23642        7.30925       -0.834
       21.17356       23.64168        7.25868        0.417
       22.40168       23.33390        6.42869        0.417
       23.26105       12.48457       18.30333       -0.834
       22.49911       12.99457       18.02841        0.417
       23.35651       11.81280       17.62817        0.417
       27.82392        7.55229       21.21494       -0.834
       27.73233        8.50434       21.17690        0.417
       27.84553        7.35046       22.15037        0.417
       15.04445       17.57099       24.19536       -0.834
       15.19406       18.51109       24.29567        0.417
       15.68433       17.16259       24.77845        0.417
       13.93839       25.55273       24.54600       -0.834
       14.77444       25.87113       24.88640        0.417
       13.27879       25.97445       25.09673        0.417
       30.15170       14.34527       13.07126       -0.834
       29.63496       14.03720       12.32674        0.417
       30.27148       13.56875       13.61798        0.417
       18.93466       23.64925       21.38389       -0.834
       19.69077       24.17475       21.12242        0.417
       18.20868       23.99997       20.86797        0.417
       27.85760       21.14926       10.89132       -0.834
       27.83705       20.83229       11.79428        0.417
       28.20109       20.41240       10.38607        0.417
       23.81016       25.84917        8.56342       -0.834
       23.70389       25.39626        7.72687        0.417
       23.97040       26.76186        8.32353        0.417
       12.47156       27.32803       26.09207       -0.834
       11.72486       27.60376       25.56043        0.417
       12.09707       27.14012       26.95269        0.417
       12.20161        8.05705       18.78470       -0.834
       11.57942        7.81046       19.46903        0.417
       13.05953        7.98477       19.20301        0.417
       22.27679       19.44209       10.62612       -0.834
       23.12360       19.69828       10.26075        0.417
       21.65619       19.57481        9.90955        0.417
       13.63219       24.22600        6.47834       -0.834
       12.86148       23.67597        6.33797        0.417
       13.77427       24.20305        7.42465        0.417
       20.40891       12.79819       14.89313       -0.834
       19.87085       12.12490       15.30955        0.417
       19.83500       13.19137       14.23566        0.417
       26.11447       12.45053       19.10854       -0.834
       26.32997       13.17160       19.70002        0.417
       25.15887       12.39967       19.13032        0.417
       25.67442       12.03396       12.93719       -0.834
       25.40117       12.41332       13.77245        0.417
       26.13790       12.74315       12.49170        0.417
       23.09212       15.69553        9.01415       -0.834
       22.72200       15.82805        9.88690        0.417
       22.42630       15.19281        8.54491        0.417
       22.98736       25.36060       24.27848       -0.834
       23.83893       25.40655       23.84380        0.417
       22.84863       26.24075       24.62821        0.417
       12.91828       18.86141        7.67445       -0.834
       13.44846       18.24553        8.18024        0.417
       13.06170       19.70697        8.09955        0.417
       30.41939       12.11791       14.81002       -0.834
       30.00139       11.53837       14.17312        0.417
       30.45172       11.60413       15.61700        0.417
       11.67356        8.84764        7.21787       -0.834
       10.79402        8.88199        7.59399        0.417
       12.25597        9.04709        7.95084        0.417
       22.90467       24.05237       27.18410       -0.834
       23.13107       23.91070       26.26491        0.417
       22.67689       23.18241       27.51199        0.417
       20.81102        8.09117       20.64830       -0.834
       19.92055        8.40951       20.79650        0.417
       21.33923        8.88522       20.56641        0.417
       21.82815       26.06342       16.51750       -0.834
       22.56449       25.60629       16.11121        0.417
       21.61186       25.53483       17.28564        0.417
       20.08003       22.53660       11.05676       -0.834
       20.41028       23.43395       11.10059        0.417
       20.58203       22.13037       10.35021        0.417
       22.27590       10.33467       20.79334       -0.834
       22.99135       10.94455       20.61331        0.417
       22.15564       10.37910       21.74191        0.417
       23.91983       28.16556       10.36320       -0.834
       23.67781       27.24796       10.48838        0.417
       24.48717       28.16109        9.59227        0.417
       14.00779       16.82724        9.78549       -0.834
       13.46146       16.31307       10.37996        0.417
       14.28439       16.20372        9.11397        0.417
       16.89354        6.03513       27.73419       -0.834
       17.38571        5.81694       28.52564        0.417
       17.55980        6.31664       27.10723        0.417
       18.45727       11.07755       15.80748       -0.834
       17.94290       11.16651       16.60981        0.417
       18.14707       10.26262       15.41264        0.417
       15.71044       20.58238        5.61044       -0.834
       16.07597       21.43733        5.38309        0.417
       16.05893       20.39656        6.48237        0.417
       23.32136       19.06878       23.14898       -0.834
       23.77018       18.44814       23.72309        0.417
       22.75746       19.57338       23.73519        0.417
        8.37767       11.24852       28.33653       -0.834
        8.88238       10.61304       27.82893        0.417
        8.23565       10.82214       29.18167        0.417
       19.48313       28.91766       24.77900       -0.834
       19.58332       28.58154       25.66963        0.417
       20.20360       28.52014       24.29000        0.417
       28.56643        8.68928       11.64835       -0.834
       29.06327        8.00416       12.09556        0.417
       27.69759        8.30937       11.51794        0.417
       17.22082       24.92582       28.21382       -0.834
       17.57631       24.42131       28.94548        0.417
       17.33032       25.83966       28.47678        0.417
        7.10148       14.84245       22.51510       -0.834
        6.72744       14.61752       23.36699        0.417
        7.32956       13.99954       22.12303        0.417
       17.22841       11.55331       11.95491       -0.834
       16.29853       11.60183       11.73307        0.417
       17.24196       11.39197       12.89832        0.417
       25.31663       20.98755        9.97380       -0.834
       26.26490       21.11654        9.95477        0.417
       25.10480       20.63629        9.10895        0.417
        9.67456       18.83090       30.29790       -0.834
        8.74140       18.84631       30.51073        0.417
        9.76272       18.12624       29.65610        0.417
       19.22223        6.87236       25.80518       -0.834
       19.87727        7.54279       25.99932        0.417
       18.69113        7.25143       25.10484        0.417
       16.00997        8.27894       16.92257       -0.834
       15.21419        7.91345       17.30907        0.417
       16.59492        7.52791       16.82241        0.417
       18.56994       26.86833       12.86946       -0.834
       18.36425       25.93892       12.97011        0.417
       18.10977       27.13099       12.07228        0.417
        5.74143       20.30997       24.74419       -0.834
        6.50393       19.75913       24.56699        0.417
        5.16282       19.75712       25.26936        0.417
       20.58016       22.15212       19.42748       -0.834
       20.51683       21.28593       19.02509        0.417
       20.44132       21.99370       20.36122        0.417
       26.69626       15.42482       18.79990       -0.834
       25.84938       15.71228       19.14106        0.417
       26.49299       15.03707       17.94869        0.417
       14.68618        7.79063       19.92573       -0.834
       14.93992        8.35574       20.65546        0.417
       15.43542        7.20800       19.80161        0.417
       15.62602       13.89339       23.72525       -0.834
       15.88814       14.45512       22.99589        0.417
       14.91655       13.35671       23.37190        0.417
       29.97473       20.67500       13.36998       -0.834
       30.78032       20.27184       13.69358        0.417
       29.30081       20.00956       13.50876        0.417
        9.21313       10.89993       23.43949       -0.834
        8.85205       11.45550       22.74869        0.417
        8.47593       10.73997       24.02871        0.417
       27.12061       20.35947       13.86341       -0.834
       26.19217       20.12995       13.90291        0.417
       27.34293       20.61505       14.75867        0.417
       11.67870       14.53413        5.60161       -0.834
       11.70376       13.59863        5.80276        0.417
       10.74614       14.74671        5.56447        0.417
        1.97680       21.01827       16.17934       -0.834
        1.25173       21.44067       16.63988        0.417
        1.97228       20.11656       16.50047        0.417
       16.77107       10.56660       26.04345       -0.834
       15.98049       10.91915       26.45203        0.417
       17.38488       10.45087       26.76876        0.417
        9.86995       23.51013       14.29309       -0.834
        9.21256       23.79972       14.92576        0.417
        9.37932       23.37398       13.48255        0.417
       21.52927       26.36441       12.70146       -0.834
       21.58778       25.68389       13.37206        0.417
       20.65682       26.74085       12.81703        0.417
       26.50081       18.14006       26.10609       -0.834
       26.39666       18.93478       25.58283        0.417
       26.82757       17.48663       25.48763        0.417
       16.53866       20.48953       26.97836       -0.834
       16.55168       20.48684       27.93547        0.417
       17.37311       20.09433       26.72589        0.417
       22.75374       10.70869       10.79017       -0.834
       22.48039       11.61666       10.65936        0.417
       22.28618       10.42828       11.57692        0.417
       27.08015       22.77727       22.80487       -0.834
       26.95371       21.86361       23.06076        0.417
       28.01593       22.84620       22.61569        0.417
       27.91916       12.25164       22.65530       -0.834
       28.41787       12.86910       22.12027        0.417
       27.67666       12.75110       23.43502        0.417
        9.76319        4.91835       20.39785       -0.834
       10.55521        5.33902       20.73247        0.417
        9.37251        4.49832       21.16412        0.417
        7.11530        4.89521       18.42794       -0.834
        7.60720        5.50784       18.97470        0.417
        6.42938        5.42895       18.02686        0.417
       11.49213       29.13981       11.49092       -0.834
       10.92523       28.71870       10.84476        0.417
       11.77260       28.42700       12.06491        0.417
       21.88841       16.62665       11.35146       -0.834
       20.96344       16.41298       11.47395        0.417
       21.89756       17.57028       11.19115        0.417
       15.41492       26.36772       15.50759       -0.834
       15.52721       27.18426       15.02088        0.417
       15.11992       25.73602       14.85172        0.417
       11.04425       18.09891       21.36626       -0.834
       11.60176       17.81025       22.08882        0.417
       10.21903       17.63233       21.49866        0.417
        7.90635       19.97323        8.49067       -0.834
        8.47015       19.91531        7.71931        0.417
        8.45116       20.39520        9.15501        0.417
       13.64503        8.06883       23.19091       -0.834
       14.49091        7.63672       23.07257        0.417
       13.21026        7.98168       22.34261        0.417
       12.65010       14.22847        8.60958       -0.834
       11.91943       14.47990        8.04466        0.417
       12.26546       13.62471        9.24500        0.417
       31.16566       15.85809       15.95032       -0.834
       30.54310       15.66226       15.25011        0.417
       30.63793       15.85349       16.74889        0.417
       11.19864        9.07307       21.80866       -0.834
       10.81629        9.70246       21.19718        0.417
       10.96919        9.41008       22.67469        0.417
       17.44310       13.21811        2.27502       -0.834
       16.97072       12.68522        1.63540        0.417
       17.94815       13.83596        1.74641        0.417
        5.05075       17.93797       14.19108       -0.834
        4.49446       17.78629       14.95513        0.417
        4.45112       17.89849       13.44601        0.417
        5.19295       13.18851        9.39672       -0.834
        4.61729       13.73979        9.92675        0.417
        5.22296       12.35374        9.86415        0.417
       11.17746       19.59138        4.17579       -0.834
       11.78136       19.12250        3.59987        0.417
       11.70296       20.29853        4.54998        0.417
       22.14340       22.31623       16.43530       -0.834
       21.20578       22.43289       16.58856        0.417
       22.33641       21.44463       16.78069        0.417
       28.18031       14.53348       15.15125       -0.834
       28.60183       13.82974       15.64450        0.417
       28.67285       14.58059       14.33185        0.417
       21.21139       14.30542       17.14255       -0.834
       21.37478       15.17000       16.76566        0.417
       21.04087       13.74269       16.38724        0.417
       17.56086       20.38884       29.70547       -0.834
       18.27838       20.72814       29.17042        0.417
       17.70250       20.77517       30.56972        0.417
       24.88955       12.14683       25.93381       -0.834
       25.40526       11.81508       26.66881        0.417
       23.99419       11.86602       26.12275        0.417
       17.27439       11.93504       21.74814       -0.834
       17.59302       12.81970       21.92722        0.417
       17.51861       11.43036       22.52396        0.417
       25.71856       13.37788       15.63598       -0.834
       25.82476       12.86380       16.43640        0.417
       26.59045       13.73185       15.46065        0.417
       10.25477       12.45348       18.07904       -0.834
        9.73312       13.12697       17.64253        0.417
       11.15968       12.74969       17.98091        0.417
       25.19400       12.95828        5.27638       -0.834
       24.59418       12.22154        5.39329        0.417
       25.47930       13.17852        6.16313        0.417
       19.46941       30.48585       22.05178       -0.834
       19.07056       29.61731       22.10544        0.417
       18.73108       31.09271       22.10480        0.417
       12.25375       19.65063       27.05655       -0.834
       12.49235       19.37374       27.94122        0.417
       13.01954       20.13007       26.74041        0.417
       13.28460        9.48547       25.46115       -0.834
       13.55639        8.84342       24.80531        0.417
       12.61688       10.01089       25.02032        0.417
       23.20860       21.98725       21.32864       -0.834
       23.59660       21.23906       21.78239        0.417
       22.26755       21.89742       21.47893        0.417
        7.80913       22.37066       25.45340       -0.834
        6.95698       21.94294       25.36902        0.417
        7.72638       22.91863       26.23386        0.417
       19.25784       17.72955        9.40972       -0.834
       19.04435       16.89080        9.81856        0.417
       19.25777       18.35616       10.13332        0.417
       11.90019        3.23194       14.17370       -0.834
       11.68645        2.52250       13.56769        0.417
       11.46132        4.00011       13.80829        0.417
       25.58213       18.04917       11.17939       -0.834
       25.79410       18.96604       11.00427        0.417
       25.34371       18.03078       12.10624        0.417
       27.61663       19.41264       20.48599       -0.834
       27.72892       20.31978       20.20187        0.417
       27.27662       19.48093       21.37816        0.417
       25.56781       10.68968       21.77629       -0.834
       26.40078       11.09411       22.01883        0.417
       25.29955       11.15080       20.98153        0.417
       11.99029       24.62262       12.70401       -0.834
       11.62548       24.39694       11.84831        0.417
       11.30455       24.38397       13.32775        0.417
       24.56035        8.98674       18.50018       -0.834
       23.69571        9.38763       18.41118        0.417
       24.37967        8.07301       18.72079        0.417
       19.22713       21.67916        2.12321       -0.834
       18.87370       20.89662        1.70019        0.417
       19.26570       21.45295        3.05250        0.417
        5.39804        7.40353       18.27697       -0.834
        5.53467        8.14392       17.68589        0.417
        5.24427        7.80456       19.13240        0.417
        7.07592       11.94797       25.47420       -0.834
        6.36535       11.30755       25.43966        0.417
        7.60192       11.68237       26.22852        0.417
       11.25840       13.32287       21.66273       -0.834
       11.30925       13.63731       20.76008        0.417
       10.93548       12.42504       21.58626        0.417
        7.96919       29.39301       16.29207       -0.834
        7.04770       29.54283       16.50339        0.417
        8.29989       28.86686       17.02011        0.417
        8.94500       13.09130       14.39620       -0.834
        9.88876       13.20732       14.50654        0.417
        8.55960       13.51890       15.16096        0.417
       17.55161       22.55404       24.14766       -0.834
       18.10395       23.20700       23.71778        0.417
       18.04623       21.73756       24.07736        0.417
        5.55230       14.44369       25.11554       -0.834
        4.61942       14.26326       25.23136        0.417
        5.99365       13.74449       25.59778        0.417
        6.42869       19.85293       16.71183       -0.834
        5.81150       20.55557       16.91580        0.417
        7.05719       20.25259       16.11059        0.417
        7.49179       23.93426       15.60401       -0.834
        6.63635       24.36318       15.62610        0.417
        7.83951       24.04662       16.48871        0.417
        6.27587       21.51553       11.50643       -0.834
        5.76798       20.73186       11.29634        0.417
        5.63558       22.12536       11.87300        0.417
       11.50911       12.37437       10.17125       -0.834