%Nproc=32
%Mem=120Gb
%chk=temp.chk
#p cam-b3lyp/6-31+G(d,p) nosymm charge Freq 

Calculation for S0 with freq for abs spect

0  1
 C         15.67001       17.52951       16.07990
 C         17.29263       15.73382       15.50664
 C         17.69386       15.59301       16.75284
 C         17.02629       16.30618       17.76575
 N         16.02668       17.20797       17.42578
 H         17.67125       15.12497       14.63812
 H         18.45954       14.96849       17.03646
 O         17.17321       16.07324       18.97937
 O         14.84122       18.33227       15.79511
 N         16.36929       16.69331       15.18925
 H         15.95504       16.77448       14.32139
 H         15.50575       17.72944       18.15479
 O         16.06661       18.05416       12.34911
 H         16.09970       17.20233       12.78445
 H         16.32492       17.87210       11.44558
 O         21.36673       16.98452       16.98301
 H         22.05384       17.64416       16.88818
 H         21.70475       16.21769       16.52047
 O         18.85143       20.46919       18.05710
 H         18.18416       20.91854       17.53839
 H         18.95946       21.01638       18.83501
 O         16.37419       11.23495       17.83200
 H         16.45482       12.17345       18.00213
 H         16.04662       10.86936       18.65376
 O         19.48198       17.82118       13.15867
 H         19.13559       18.62104       13.55424
 H         19.00634       17.11317       13.59307
 O         13.24113       14.30955       15.14583
 H         13.56771       13.45138       14.87543
 H         12.77787       14.14232       15.96659
 O         13.13368       19.03174       18.14830
 H         13.56303       19.87679       18.28157
 H         12.61419       19.14928       17.35297
 O         13.37974       15.03600       12.64039
 H         13.51839       14.70882       13.52919
 H         12.55764       14.63263       12.36169
 O         18.94387       15.30066       19.59697
 H         19.12831       16.02583       19.00004
 H         18.17473       14.87124       19.22246
 O         12.54780       16.45077       19.47195
 H         12.98161       16.83072       20.23594
 H         12.66395       17.10293       18.78099
 O         17.96138       16.58512       21.89854
 H         18.18873       15.92926       21.23945
 H         17.01709       16.70698       21.80007
 O         19.44966       13.06768       16.47340
 H         19.21439       12.85717       15.56976
 H         20.40585       13.11148       16.46845
 O         16.36104       21.48209       16.96881
 H         16.34196       21.85028       16.08546
 H         15.44001       21.41419       17.22046
 O         17.69393       13.30661       14.01685
 H         17.74648       14.26236       14.01286
 H         17.61448       13.06677       13.09360
 O         19.16184       17.91667       18.37984
 H         19.10233       18.86720       18.28399
 H         19.67782       17.63128       17.62582
 O         15.15826       19.77384       14.25955
 H         15.44578       19.44557       13.40761
 H         15.17591       20.72650       14.16807
 O         12.08647       14.20283       17.78445
 H         12.33458       13.37478       18.19555
 H         12.37181       14.87370       18.40473
 
       23.04951       17.56106       19.64396       -0.834
       22.30504       17.34277       19.08330        0.417
       23.37957       18.38831       19.29331        0.417
       28.58821       15.93964       15.47732       -0.834
       28.83290       16.23815       14.60139        0.417
       27.97211       15.22343       15.32338        0.417
       15.58533        7.45633        9.85203       -0.834
       15.16690        8.24688        9.51120        0.417
       16.26498        7.24899        9.21069        0.417
       19.81620       27.72459       15.10268       -0.834
       19.11783       28.18275       15.57021        0.417
       19.41558       26.90328       14.81777        0.417
        8.93205       24.79302       17.99759       -0.834
        9.60944       24.30355       18.46427        0.417
        8.49652       25.30755       18.67716        0.417
       18.65623        4.56212       20.36938       -0.834
       19.59319        4.60769       20.17894        0.417
       18.48136        3.62904       20.49201        0.417
        6.29054       10.79162       16.96222       -0.834
        6.71636       11.59631       17.25785        0.417
        6.62814       10.65257       16.07739        0.417
       16.88776       30.95737       20.36116       -0.834
       17.36846       31.39868       19.66087        0.417
       16.46655       31.66648       20.84693        0.417
       14.59425       26.09302       13.91322       -0.834
       15.15070       25.97922       14.68371        0.417
       14.19362       26.95424       14.03161        0.417
       18.85013       29.24015       24.28559       -0.834
       17.91876       29.44332       24.19900        0.417
       19.29373       29.93684       23.80178        0.417
        9.20529       22.75937       15.61066       -0.834
        9.09515       23.70937       15.65059        0.417
        9.39356       22.57809       14.68983        0.417
       25.47300       16.07199        6.18132       -0.834
       24.69344       16.50728        5.83630        0.417
       25.23068       15.81558        7.07113        0.417
       26.09509       11.24251       11.71973       -0.834
       26.77075       10.69019       12.11299        0.417
       25.66210       10.67480       11.08218        0.417
        9.08212       16.32304       22.74361       -0.834
        9.35954       16.02430       21.87757        0.417
        9.54603       15.75084       23.35484        0.417
        5.74751        8.23934       12.72904       -0.834
        6.40265        7.84531       12.15305        0.417
        5.46085        7.52111       13.29314        0.417
        5.08103       16.81384       15.22909       -0.834
        4.78827       15.90287       15.20335        0.417
        5.85462       16.80147       15.79268        0.417
       15.87974        8.78746       21.70383       -0.834
       16.32096        7.94076       21.63561        0.417
       15.40363        8.74385       22.53308        0.417
       19.84441       25.01965       19.52423       -0.834
       19.92965       24.89292       20.46917        0.417
       18.90276       25.11016       19.37821        0.417
        7.70718       17.14994       10.47429       -0.834
        7.21805       17.11709        9.65215        0.417
        8.40285       17.78767       10.31433        0.417
       21.22209       29.91900       12.43899       -0.834
       21.80684       29.99169       11.68465        0.417
       21.38549       29.04187       12.78566        0.417
       16.99546       22.05769       11.95059       -0.834
       17.62692       22.76562       12.07832        0.417
       16.24957       22.47609       11.52068        0.417
        7.99848       17.95386       13.19933       -0.834
        7.16437       18.39588       13.35778        0.417
        7.90762       17.57634       12.32443        0.417
       29.74109       16.10444       13.01458       -0.834
       30.38941       16.43989       13.63377        0.417
       30.24119       15.92118       12.21925        0.417
       19.93032       21.95874       10.86517       -0.834
       19.50809       22.17906       10.03486        0.417
       19.96069       22.78593       11.34588        0.417
       18.54815       14.66387       26.63079       -0.834
       18.90901       14.52049       25.75589        0.417
       19.13290       14.17981       27.21386        0.417
        8.11943       22.64219        6.45513       -0.834
        8.24612       23.37822        7.05383        0.417
        8.00295       23.04866        5.59638        0.417
       18.32643       21.54488       24.50094       -0.834
       18.33387       20.61528       24.27285        0.417
       19.24161       21.75324       24.68873        0.417
       21.79269       21.10667        4.54620       -0.834
       21.19323       21.82403        4.34059        0.417
       21.57856       20.86584        5.44752        0.417
       23.04360       26.05077       22.80116       -0.834
       23.78968       25.65488       23.25158        0.417
       23.13508       25.76816       21.89122        0.417
       11.30426       16.09074        2.86467       -0.834
       10.70669       16.62540        3.38743        0.417
       10.73417       15.47762        2.40066        0.417
       17.37913       10.92849       15.19373       -0.834
       17.22970       11.78639       14.79635        0.417
       17.31663       11.08620       16.13578        0.417
       27.35949        7.00720       13.29461       -0.834
       27.37081        7.19713       14.23271        0.417
       27.60760        6.08474       13.23351        0.417
       13.50810        3.35456       22.11587       -0.834
       14.44391        3.18022       22.21641        0.417
       13.22216        3.63808       22.98425        0.417
       19.46156       19.90866       31.60409       -0.834
       18.99943       19.59560       30.82649        0.417
       19.01315       20.72107       31.83892        0.417
        9.25012       20.13906        5.69687       -0.834
        9.94341       20.64658        5.27497        0.417
        8.86831       20.73991        6.33674        0.417
        9.37284       26.89735       10.65273       -0.834
        9.47819       26.94680       11.60283        0.417
        8.86765       27.67822       10.42633        0.417
       19.53258       13.33490       28.94477       -0.834
       18.61988       13.56728       29.11567        0.417
       19.68180       12.54751       29.46821        0.417
        7.42119       10.77352       11.31139       -0.834
        6.77400       11.31659       11.76134        0.417
        6.90426       10.09732       10.87347        0.417
       27.51216       24.98975       19.38022       -0.834
       27.78001       25.76971       19.86617        0.417
       27.01305       24.47269       20.01250        0.417
       13.62428       14.46604       22.51785       -0.834
       13.85249       14.10534       23.37462        0.417
       12.76117       14.09967       22.32539        0.417
       16.23408        4.55423       18.56930       -0.834
       17.05433        4.55823       19.06267        0.417
       16.40800        5.11056       17.81004        0.417
       11.92899       16.83905       14.51692       -0.834
       12.20792       15.99084       14.17201        0.417
       12.03520       17.44350       13.78234        0.417
        8.44793        7.50437       22.07199       -0.834
        7.68728        7.03184       22.41016        0.417
        8.19475        8.42662       22.11191        0.417
       17.72807       27.17721       22.63646       -0.834
       17.10795       27.84711       22.92442        0.417
       18.58899       27.54761       22.83103        0.417
        5.04020       12.84834       20.32791       -0.834
        4.64358       12.00103       20.53037        0.417
        5.95012       12.76142       20.61205        0.417
       12.56647       13.13631        1.75256       -0.834
       12.81841       13.49046        2.60540        0.417
       11.61707       13.25241        1.71546        0.417
       13.19214       28.28962       23.22689       -0.834
       13.12318       29.24361       23.18979        0.417
       12.82915       27.99018       22.39335        0.417
       26.04287       10.44426        8.74538       -0.834
       26.40096       10.57477        7.86733        0.417
       25.42664       11.16719        8.86313        0.417
        9.74421       18.25905        7.94766       -0.834
        9.49849       18.81346        7.20706        0.417
        9.75263       18.85208        8.69898        0.417
       10.51650       27.22932       13.26302       -0.834
       10.18161       26.88852       14.09244        0.417
       11.37052       27.60109       13.48364        0.417
       30.11481       19.63058       15.45068       -0.834
       30.48550       19.28258       16.26169        0.417
       29.22048       19.29003       15.43008        0.417
       24.88900       20.18262       22.26780       -0.834
       24.09298       20.71309       22.23335        0.417
       24.71088       19.52600       22.94112        0.417
        5.63215       11.53826        6.95588       -0.834
        6.53283       11.77872        7.17309        0.417
        5.55373       11.72226        6.01981        0.417
       22.30550       28.05242       15.93678       -0.834
       21.37415       28.10887       15.72317        0.417
       22.41475       27.17527       16.30405        0.417
       11.92652       26.86499       18.18772       -0.834
       11.35464       27.63249       18.17646        0.417
       11.42926       26.18842       17.72814        0.417
       21.66303       20.22747       16.86415       -0.834
       22.49242       20.19472       17.34089        0.417
       20.99701       20.31001       17.54666        0.417
       19.18179       24.99281       15.55367       -0.834
       19.32896       24.04764       15.58883        0.417
       18.42894       25.13993       16.12622        0.417
       12.01658       15.51116       25.66065       -0.834
       12.83593       15.07226       25.88928        0.417
       11.55053       14.87930       25.11313        0.417
        9.61438       15.12698        6.31204       -0.834
        9.95652       15.89813        5.85983        0.417
       10.39385       14.63901        6.57764        0.417
       12.32080        9.93497       18.35174       -0.834
       12.37452       10.69674       18.92885        0.417
       12.35996        9.18297       18.94268        0.417
       18.13636       29.78362       12.17580       -0.834
       17.66476       30.57327       12.44089        0.417
       19.05616       30.04797       12.15813        0.417
       13.41660        8.14752       23.23321       -0.834
       14.01243        8.64064       23.79718        0.417
       13.45118        7.25282       23.57167        0.417
       17.96015       26.53464       12.26358       -0.834
       17.21884       26.43262       11.66668        0.417
       17.90730       27.44368       12.55868        0.417
       21.01914       21.41054       25.37461       -0.834
       20.73766       21.26202       26.27735        0.417
       21.96202       21.24606       25.38707        0.417
       17.38685       18.78746        1.98869       -0.834
       18.04472       18.54605        1.33665        0.417
       17.88074       19.24232        2.67089        0.417
        1.51776       16.97903       21.33455       -0.834
        1.26579       17.45422       22.12635        0.417
        2.47381       16.94637       21.36828        0.417
       12.93542       21.84310       22.35119       -0.834
       12.13341       21.56494       21.90886        0.417
       13.51464       22.12485       21.64313        0.417
       24.96608       11.16814       21.18868       -0.834
       25.47174       11.72305       20.59486        0.417
       24.36066       10.69501       20.61785        0.417
       10.73422       22.06222       29.33154       -0.834
       10.26158       22.83729       29.02805        0.417
       11.58388       22.39649       29.61890        0.417
       22.63663       27.25461        9.93639       -0.834
       23.20000       27.67320       10.58726        0.417
       22.25747       26.50434       10.39417        0.417
        5.76664       17.71413       23.09117       -0.834
        6.33736       18.20874       22.50305        0.417
        5.10985       18.34862       23.37801        0.417
        8.96788        7.26019        7.06544       -0.834
        8.53313        8.10368        6.93996        0.417
        9.59045        7.41443        7.77598        0.417
       28.22359       18.48497       12.53222       -0.834
       28.85924       18.85415       11.91912        0.417
       28.66936       17.72863       12.91362        0.417
        6.37722       14.63368       23.24828       -0.834
        7.29149       14.74654       23.50831        0.417
        6.00759       15.51601       23.28153        0.417
       16.39712       24.99235       27.58700       -0.834
       16.44641       24.37874       26.85400        0.417
       17.30322       25.26347       27.73436        0.417
       26.22093        5.82569       18.25735       -0.834
       26.18722        6.76017       18.46193        0.417
       27.01280        5.72404       17.72930        0.417
       12.56944       12.88854       28.20518       -0.834
       13.24542       13.56213       28.27972        0.417
       12.42515       12.59284       29.10405        0.417
        5.33598       14.75609        7.58385       -0.834
        6.09774       14.64806        7.01440        0.417
        5.03531       13.86348        7.75437        0.417
       16.45100       12.45895       22.17231       -0.834
       17.38611       12.30158       22.04176        0.417
       16.39529       13.38176       22.42041        0.417
       17.05809       18.76932       24.24443       -0.834
       16.37338       18.14540       24.00333        0.417
       16.86431       18.99897       25.15324        0.417
       16.87631       18.34276       30.66257       -0.834
       17.04251       18.84788       29.86666        0.417
       15.95595       18.08801       30.59733        0.417
       26.49103        8.50132       17.77971       -0.834
       26.61716        9.26822       18.33844        0.417
       27.25715        8.49383       17.20591        0.417
        7.43176       20.38002       24.11466       -0.834
        7.01565       21.24145       24.14659        0.417
        7.16057       20.01355       23.27299        0.417
       22.69104       17.96299        9.37012       -0.834
       21.87072       17.70299        9.78930        0.417
       22.71207       18.91623        9.45452        0.417
       25.86534       15.77443       20.05783       -0.834
       26.24392       16.07130       20.88535        0.417
       25.26268       16.47381       19.80504        0.417
        9.89940       26.14993       21.07624       -0.834
       10.55991       25.50116       20.83320        0.417
       10.40317       26.93040       21.30713        0.417
       26.91560       14.48303       25.45053       -0.834
       26.21318       14.40826       24.80458        0.417
       26.48919       14.84319       26.22815        0.417
       17.31146        4.89692       15.54280       -0.834
       17.57504        5.80238       15.37876        0.417
       17.86593        4.61351       16.26976        0.417
        9.91252        9.35244       13.35069       -0.834
       10.29465       10.22998       13.36184        0.417
       10.08042        9.02880       12.46564        0.417
       22.20302       24.24464       13.70465       -0.834
       21.98024       24.04059       12.79637        0.417
       21.62151       23.69007       14.22478        0.417
       22.01858       20.51875        9.66592       -0.834
       21.26181       20.47513       10.25041        0.417
       22.32856       21.42120        9.74161        0.417
       17.60171       26.35245       19.72385       -0.834
       17.68162       26.82167       20.55432        0.417
       16.66374       26.36024       19.53309        0.417
       21.73785       14.12732        8.13148       -0.834
       21.99347       13.89492        7.23880        0.417
       22.54183       14.03586        8.64284        0.417
        6.18997        6.25705       18.09493       -0.834
        5.35801        6.61815       17.78886        0.417
        6.73644        7.02427       18.26520        0.417
       25.64702        8.17718       10.10467       -0.834
       25.50970        7.59719        9.35568        0.417
       26.00612        8.97897        9.72465        0.417
       12.40759        9.62322       25.83059       -0.834
       13.05952        8.96949       26.08326        0.417
       12.85454       10.17087       25.18518        0.417
        9.92353       14.06748       24.15135       -0.834
        9.74536       13.42784       23.46190        0.417
        9.95533       13.55028       24.95616        0.417
       14.71413       29.15397       19.54748       -0.834
       13.89181       29.63367       19.44786        0.417
       15.37547       29.83467       19.67200        0.417
       12.06149       26.97824        9.96593       -0.834
       11.94273       26.44331        9.18109        0.417
       11.26698       26.83113       10.47911        0.417
       22.87844       22.70131        8.07463       -0.834
       23.36531       23.32347        8.61510        0.417
       22.76674       23.14833        7.23563        0.417
       19.13051       22.34053       28.48880       -0.834
       18.77860       23.17700       28.18432        0.417
       20.03926       22.53248       28.72024        0.417
       15.46063       11.04295        6.05205       -0.834
       15.43014       11.98180        6.23606        0.417
       16.36467       10.88042        5.78273        0.417
       15.96408       22.33388        8.73334       -0.834
       16.79164       22.17263        8.28016        0.417
       15.91424       21.64376        9.39477        0.417
        6.76125       14.41101       27.03035       -0.834
        7.07090       15.17915       27.51025        0.417
        6.39312       14.76589       26.22118        0.417
        7.79032       20.59052       16.74110       -0.834
        8.40266       21.12636       16.23695        0.417
        8.13859       19.70140       16.67473        0.417
       24.70523        8.46423       14.21978       -0.834
       25.49344        8.90377       13.90079        0.417
       24.00460        8.78653       13.65279        0.417
       27.40663       19.30064       15.95230       -0.834
       26.94219       19.44804       15.12840        0.417
       27.13277       20.02490       16.51506        0.417
       11.98892       13.96394        8.20708       -0.834
       12.82728       14.40422        8.34690        0.417
       11.36612       14.45911        8.73921        0.417
       19.96607        7.92429       19.57763       -0.834
       20.51527        8.44096       20.16725        0.417
       20.58469        7.38775       19.08197        0.417
       21.82529       16.80265        6.99457       -0.834
       22.28367       17.22381        7.72172        0.417
       21.73596       15.88861        7.26438        0.417
       17.12999       14.71934        4.30524       -0.834
       16.53374       14.66252        5.05189        0.417
       16.64842       15.22636        3.65160        0.417
       16.39848        2.57328       13.58275       -0.834
       16.67136        2.09579       12.79932        0.417
       17.11684        3.18193       13.75522        0.417
       23.37821       10.92847       28.69836       -0.834
       24.18433       11.38518       28.45790        0.417
       22.69354       11.36887       28.19487        0.417
        6.77386        8.76897       18.92978       -0.834
        6.49705        9.48768       18.36138        0.417
        7.73025        8.80538       18.91419        0.417
        6.73197       17.13085        7.77221       -0.834
        7.48598       16.92278        7.22049        0.417
        6.26759       16.29929        7.86754        0.417
        6.48416       27.30988       17.24923       -0.834
        6.91427       27.14763       18.08882        0.417
        5.85551       26.59369       17.15927        0.417
       25.56364       12.94565        7.57995       -0.834
       26.00947       13.31357        8.34291        0.417
       24.71393       12.65819        7.91401        0.417
       13.29362       21.24014       11.74207       -0.834
       12.78884       21.11338       10.93873        0.417
       13.01306       22.09474       12.06946        0.417
       23.73888        9.87846        5.41224       -0.834
       24.41059        9.59833        4.79049        0.417
       24.19870       10.46247        6.01534        0.417
       22.03260       25.60943       27.39645       -0.834
       22.35622       25.07694       26.66984        0.417
       22.69148       25.50466       28.08283        0.417
       17.77913        6.78443       21.32070       -0.834
       18.67429        7.12338       21.31593        0.417
       17.86429        5.87768       21.02611        0.417
        4.85889        7.94326       20.65312       -0.834
        5.43954        8.56499       20.21433        0.417
        4.38046        7.51823       19.94129        0.417
       19.03693       13.58242       24.08915       -0.834
       19.04940       12.78543       23.55916        0.417
       19.95198       13.86102       24.12515        0.417
       16.73609       23.35562        3.35882       -0.834
       16.14173       23.08285        2.65984        0.417
       17.56705       23.52482        2.91485        0.417
       11.72495        6.71632       16.83958       -0.834
       12.29502        6.56719       16.08526        0.417
       12.02884        7.54500       17.20994        0.417
       29.44853       18.05981       24.90393       -0.834
       28.51638       17.99027       25.11010        0.417
       29.67558       18.96394       25.12125        0.417
       18.44687        1.44291       16.55526       -0.834
       19.14944        1.95740       16.95265        0.417
       17.73981        1.46385       17.20013        0.417
       24.17479       18.52310       24.39795       -0.834
       23.77681       18.51888       25.26848        0.417
       23.73889       17.81001       23.93134        0.417
       19.86914       23.36160       22.11586       -0.834
       20.08829       23.83242       22.91993        0.417
       18.94798       23.12346       22.22068        0.417
       14.12100        4.14289       13.73911       -0.834
       14.44155        4.87296       13.20951        0.417
       14.80230        3.47473       13.66415        0.417
       13.68609        3.07919       16.23504       -0.834
       14.41349        2.48201       16.40970        0.417
       13.87968        3.44751       15.37301        0.417
       18.54726        8.01590        5.28182       -0.834
       18.43319        8.94614        5.47641        0.417
       18.14095        7.89876        4.42309        0.417
       21.86177       24.63194       10.98809       -0.834
       21.10616       24.58694       10.40221        0.417
       22.60010       24.34660       10.44987        0.417
       24.38221       20.17996        7.10405       -0.834
       23.68679       19.85579        7.67635        0.417
       23.97963       20.22076        6.23658        0.417
       22.16104        6.57818       22.65214       -0.834
       21.48014        7.19472       22.92138        0.417
       22.56487        6.98609       21.88613        0.417
        9.41780        7.22956       25.37672       -0.834
        9.53481        6.98467       24.45881        0.417
        8.74883        7.91397       25.35910        0.417
       10.79812        7.91291       28.49841       -0.834
       11.69276        8.10273       28.78093        0.417
       10.66386        8.47319       27.73402        0.417
        6.13655       16.41353       17.96784       -0.834
        6.71113       16.97393       18.48941        0.417
        5.30974       16.89368       17.92235        0.417
       26.63905       21.62087       17.64188       -0.834
       27.39038       22.18645       17.46342        0.417
       26.10128       22.12244       18.25463        0.417
       26.58044       17.23178       10.07947       -0.834
       27.15062       17.57131       10.76928        0.417
       26.55989       17.92661        9.42143        0.417
       23.35951        5.85916       14.48402       -0.834
       23.66417        6.76244       14.39751        0.417
       24.03232        5.42842       15.01130        0.417
       14.89522       17.10147       26.45053       -0.834
       14.32721       17.86616       26.35647        0.417
       14.90948       16.70452       25.57964        0.417
       30.61155       12.28474       19.13603       -0.834
       30.55479       12.76210       19.96376        0.417
       29.79275       12.48928       18.68440        0.417
       28.87025       15.36112       19.78322       -0.834
       27.91393       15.38612       19.81570        0.417
       29.09570       15.83587       18.98321        0.417
        7.03655       19.55764       21.24175       -0.834
        6.72661       20.20697       20.61045        0.417
        7.42719       18.86824       20.70476        0.417
        3.80326       19.46781       20.13527       -0.834
        4.39148       20.22293       20.13881        0.417
        3.93475       19.06519       19.27688        0.417
       12.59084       25.27588       27.32424       -0.834
       11.85271       25.81594       27.60661        0.417
       13.15552       25.87659       26.83791        0.417
       15.73745        5.35853       23.17575       -0.834
       15.10959        5.75316       22.57052        0.417
       16.07059        4.59169       22.70970        0.417
        8.20131       17.72446       19.39752       -0.834
        8.70075       18.15166       18.70161        0.417
        8.83070       17.14068       19.82096        0.417
       14.47059        6.34011       11.88604       -0.834
       14.92583        6.58258       11.07969        0.417
       13.59859        6.07061       11.59758        0.417
       16.55013       14.67983       24.12999       -0.834
       16.58070       15.40484       23.50576        0.417