%Nproc=32
%Mem=120Gb
%chk=temp.chk
#p cam-b3lyp/6-31+G(d,p) nosymm charge Freq 

Calculation for S0 with freq for abs spect

0  1
 C         15.67001       17.52951       16.07990
 C         17.29263       15.73382       15.50664
 C         17.69386       15.59301       16.75284
 C         17.02629       16.30618       17.76575
 N         16.02668       17.20797       17.42578
 H         17.67125       15.12497       14.63812
 H         18.45954       14.96849       17.03646
 O         17.17321       16.07324       18.97937
 O         14.84122       18.33227       15.79511
 N         16.36929       16.69331       15.18925
 H         15.95504       16.77448       14.32139
 H         15.50575       17.72944       18.15479
 O         14.61033       13.04561       20.61078
 H         15.21671       13.74322       20.36201
 H         14.66617       12.41254       19.89501
 O         14.76805       17.33666       21.37651
 H         15.00660       17.22559       20.45619
 H         14.40393       16.48969       21.63395
 O         12.89525       17.49957       13.18331
 H         12.28792       16.94493       12.69366
 H         13.48581       17.85393       12.51856
 O         19.16013       18.46091       13.10577
 H         19.90410       18.21148       12.55756
 H         18.39418       18.13316       12.63446
 O         18.40310       20.96089       13.92262
 H         18.80000       20.09419       13.83583
 H         19.13710       21.57007       13.84274
 O         14.99875       21.42986       18.91802
 H         14.34167       21.51842       19.60841
 H         14.67943       20.71016       18.37369
 O         19.52148       18.41116       15.81447
 H         20.36267       17.95857       15.75291
 H         19.27542       18.58495       14.90591
 O         19.19817       14.47784       13.26092
 H         18.63148       14.61955       12.50262
 H         19.74163       13.72837       13.01767
 O         17.41489       12.39291       18.71620
 H         16.73381       12.88351       18.25613
 H         18.23674       12.75031       18.37996
 O         16.57768       21.32375       15.95457
 H         17.15214       21.10076       15.22210
 H         17.05260       21.02721       16.73094
 O         13.72253       15.12349       14.44480
 H         13.54898       16.05273       14.29435
 H         13.34483       14.68253       13.68379
 O         13.11513       14.15012       16.97595
 H         12.18573       13.93307       16.90290
 H         13.38533       14.35292       16.08035
 O         16.83118       15.23250       20.47579
 H         17.02024       16.10793       20.81360
 H         17.68910       14.81549       20.39631
 O         18.63337       20.46649       17.65240
 H         18.88348       19.66535       17.19212
 H         19.12330       20.43410       18.47408
 O         20.00857       13.49092       17.81493
 H         20.17366       13.75785       16.91065
 H         20.58802       12.74176       17.95361
 O         13.88185       15.89859       19.10693
 H         12.99290       16.13658       19.37029
 H         13.76427       15.36044       18.32410
 O         14.44954       11.89521       18.10449
 H         13.85896       12.54255       17.71927
 H         14.86531       11.47249       17.35303
 O         13.67794       19.62265       16.74293
 H         13.85102       20.02594       15.89226
 H         13.20639       18.81611       16.53465
 O         14.61099       12.05124       14.93977
 H         15.49936       11.70519       14.85445
 H         14.73302       12.98120       15.13087
 O         17.16154       17.15202       11.84542
 H         17.20525       16.24150       11.55340
 H         16.39113       17.50903       11.40356
 O         20.71816       14.84355       15.50646
 H         20.16573       15.54389       15.85369
 H         20.38805       14.69443       14.62045
 O         20.18017       17.61008       18.45219
 H         19.58700       17.95980       17.78730
 H         19.69648       17.69489       19.27382
 
       17.79471        2.83812       19.95501       -0.834
       18.25843        2.00546       19.86630        0.417
       18.08454        3.35546       19.20362        0.417
       24.10208        9.87530       26.08356       -0.834
       24.19778       10.82727       26.05468        0.417
       23.89371        9.62761       25.18275        0.417
       14.65509        6.59681        6.32974       -0.834
       13.89088        7.13977        6.52316        0.417
       15.19506        6.65288        7.11810        0.417
       12.74326       26.64669       19.57727       -0.834
       13.49424       26.45610       20.13935        0.417
       13.11914       26.75754       18.70397        0.417
       21.82822       25.91712        9.83704       -0.834
       22.23062       25.18916       10.31073        0.417
       22.08066       26.69544       10.33375        0.417
        3.55146       20.80923       16.20981       -0.834
        4.08942       20.16693       15.74690        0.417
        3.80421       20.71656       17.12837        0.417
        9.94323       24.60048        8.18717       -0.834
        9.85906       24.07724        8.98428        0.417
       10.08785       23.95800        7.49252        0.417
       28.43917       20.63911       23.17074       -0.834
       27.60549       20.40873       22.76070        0.417
       28.19312       21.06681       23.99095        0.417
       20.74435        4.06117       14.75635       -0.834
       20.44994        4.62459       14.04073        0.417
       21.50088        4.51714       15.12511        0.417
       19.79774        6.97665       16.58917       -0.834
       20.68868        6.73107       16.33988        0.417
       19.74639        7.91427       16.40348        0.417
       17.24271       10.97138       12.05554       -0.834
       18.15743       10.82061       11.81724        0.417
       17.26993       11.18663       12.98782        0.417
        9.59978       24.33273       14.66468       -0.834
       10.19561       25.07613       14.75721        0.417
        9.94638       23.67138       15.26360        0.417
       19.87596       29.54279       20.71172       -0.834
       19.94454       28.58949       20.65931        0.417
       18.93455       29.71505       20.72948        0.417
       19.06753       23.28845       11.06593       -0.834
       19.23042       22.68982       10.33699        0.417
       18.91613       24.13725       10.65017        0.417
       20.54041        6.42765       24.33887       -0.834
       19.93677        5.98321       23.74362        0.417
       21.37962        6.42126       23.87852        0.417
       21.18660       15.95633        4.58704       -0.834
       20.42327       16.14187        5.13398        0.417
       20.84876       15.96821        3.69152        0.417
       26.02276       14.46854       20.68184       -0.834
       25.54447       15.29409       20.75884        0.417
       26.60386       14.59688       19.93212        0.417
        7.90744       13.09680       18.17905       -0.834
        8.65202       12.49878       18.11423        0.417
        7.24451       12.71810       17.60169        0.417
       25.98932       15.12843       27.33184       -0.834
       25.58953       14.26517       27.43761        0.417
       26.54392       15.23242       28.10504        0.417
       10.77496        5.49857       20.32034       -0.834
       10.37764        6.00651       21.02771        0.417
       11.49698        6.04452       20.00911        0.417
       19.34504        4.13654       10.31928       -0.834
       18.80708        3.87750        9.57113        0.417
       19.99675        4.73318        9.95114        0.417
        7.03158       12.37993       22.29738       -0.834
        6.51703       12.36232       21.49043        0.417
        7.73590       13.00321       22.11934        0.417
       16.33459       30.79795       18.42236       -0.834
       16.65044       31.64941       18.72483        0.417
       17.12185       30.25652       18.36495        0.417
        8.77925        4.02059       13.05402       -0.834
        8.89108        4.04462       14.00437        0.417
        9.65893        4.16443       12.70515        0.417
       26.71869       17.86090       25.19009       -0.834
       27.27317       18.02355       25.95319        0.417
       26.89843       16.95129       24.95233        0.417
       15.72090       17.25024        8.13643       -0.834
       15.76264       16.50287        7.53982        0.417
       14.97367       17.06245        8.70442        0.417
       20.61630       12.35499        8.29472       -0.834
       19.67183       12.50917        8.31543        0.417
       20.75743       11.83595        7.50295        0.417
       13.64113       14.95036       22.13214       -0.834
       13.90707       14.11905       21.73917        0.417
       12.72421       15.05369       21.87758        0.417
       10.47390       28.41596       19.87344       -0.834
       11.01304       27.63179       19.77030        0.417
       10.92961       29.08876       19.36757        0.417
       25.80328       10.59653       15.32996       -0.834
       25.32121       11.41633       15.22151        0.417
       25.71497       10.15281       14.48642        0.417
        4.57388        6.95417       18.35778       -0.834
        3.71014        7.33891       18.20891        0.417
        5.15268        7.70583       18.48522        0.417
       14.33857       18.06937        3.90407       -0.834
       14.59683       18.97317        3.72329        0.417
       13.60577       17.90585        3.31035        0.417
       15.84517       22.66933       29.04260       -0.834
       15.47969       21.95409       29.56326        0.417
       15.87414       23.41347       29.64397        0.417
        7.85340       18.63413       18.14929       -0.834
        7.55470       17.76425       17.88411        0.417
        8.75206       18.68870       17.82423        0.417
       29.16491       23.41988       18.37298       -0.834
       29.55658       23.39060       19.24588        0.417
       28.62512       24.21035       18.37854        0.417
       18.20401       28.09027       11.47563       -0.834
       17.53873       28.11698       10.78793        0.417
       17.70503       28.09304       12.29248        0.417
       19.58346        9.66208       15.63310       -0.834
       20.31860        9.99749       16.14622        0.417
       19.95988        9.46400       14.77560        0.417
       17.41244       30.24895       21.27107       -0.834
       16.66067       29.86964       20.81588        0.417
       17.25668       31.19307       21.24624        0.417
        8.83837       28.17706       17.56247       -0.834
        9.15095       27.59719       16.86801        0.417
        9.27341       27.85989       18.35391        0.417
       24.14029       21.39869       14.43008       -0.834
       24.34196       22.22513       14.86890        0.417
       24.89874       21.23297       13.87015        0.417
        5.99492        9.12602       19.27360       -0.834
        5.52449        9.38295       20.06664        0.417
        6.91431        9.09777       19.53847        0.417
        5.00487       16.51018        6.71506       -0.834
        5.56966       17.25891        6.90649        0.417
        5.48398       16.01109        6.05355        0.417
        8.92210       23.23130       24.29645       -0.834
        8.95287       22.87773       23.40747        0.417
        9.55185       23.95213       24.28996        0.417
       20.40250        3.24173       17.94728       -0.834
       20.32074        3.45720       17.01823        0.417
       20.51639        2.29148       17.96412        0.417
        8.20187       18.56484       25.09080       -0.834
        8.13301       19.51013       25.22467        0.417
        7.55735       18.18988       25.69100        0.417
       23.77039       21.89881       24.68967       -0.834
       24.40565       22.57871       24.91420        0.417
       24.21598       21.36068       24.03539        0.417
       24.44621       19.09002       16.51043       -0.834
       24.48178       19.87792       15.96805        0.417
       25.31971       19.02474       16.89640        0.417
       27.06037       13.66796       23.15643       -0.834
       26.65715       14.29645       23.75531        0.417
       26.82697       13.98432       22.28370        0.417
       26.29609       26.79019       12.66497       -0.834
       25.56506       27.08877       13.20597        0.417
       26.19565       25.83893       12.62965        0.417
       14.01992       19.82453       26.08523       -0.834
       14.91801       20.15568       26.08782        0.417
       13.60532       20.26110       25.34109        0.417
        8.81243       24.07983       17.81226       -0.834
        8.62478       24.79666       18.41821        0.417
        9.76537       24.08496       17.72220        0.417
       21.00791       12.20897       25.97294       -0.834
       20.29893       11.83200       25.45192        0.417
       21.58080       12.62827       25.33090        0.417
        7.82669       15.00875       20.12324       -0.834
        8.04148       14.56679       19.30180        0.417
        7.11312       15.60477       19.89563        0.417
       20.22260       29.79139       10.23387       -0.834
       19.98562       30.69211       10.01302        0.417
       19.54626       29.50941       10.84972        0.417
        8.97590       27.07782        7.45036       -0.834
        9.10007       26.30028        7.99465        0.417
        9.28145       26.81442        6.58233        0.417
       20.04477        9.36281       23.16693       -0.834
       19.60655        9.92298       23.80755        0.417
       20.97844        9.50608       23.32176        0.417
        7.39236       18.85433        7.77566       -0.834
        7.02308       18.92352        8.65604        0.417
        6.80010       19.36747        7.22598        0.417
       24.38701       12.26146       24.37457       -0.834
       25.34177       12.19460       24.38859        0.417
       24.16264       12.29816       23.44476        0.417
       27.60685       11.12589       21.28387       -0.834
       27.72342       11.46293       20.39559        0.417
       27.57363       11.90792       21.83484        0.417
       11.77724       24.10981        4.51056       -0.834
       12.41540       24.81935        4.43611        0.417
       11.87494       23.79239        5.40830        0.417
       10.72591       24.32186       20.65146       -0.834
       10.85048       25.08928       20.09308        0.417
       11.22480       24.51846       21.44436        0.417
       13.95557       24.81501       24.17986       -0.834
       14.45106       25.62126       24.32372        0.417
       13.99928       24.35378       25.01746        0.417
        6.83596       21.69100        8.26472       -0.834
        7.72491       21.70386        8.61943        0.417
        6.70498       22.57172        7.91343        0.417
       18.07834       15.77244        4.21148       -0.834
       18.49505       15.03170        3.77116        0.417
       17.59465       16.22226        3.51870        0.417
        9.14499       14.02632       22.19264       -0.834
        8.75508       14.56717       21.50585        0.417
        9.85421       14.56273       22.54690        0.417
       26.88658       19.81745       17.36578       -0.834
       27.28712       19.12450       17.89078        0.417
       27.54553       20.02879       16.70445        0.417
       17.34996        4.10470        8.42055       -0.834
       16.82314        4.31056        9.19276        0.417
       16.73982        3.67441        7.82154        0.417
        9.23314       15.57305        3.84541       -0.834
        9.91184       16.18455        4.13118        0.417
        8.44079       16.10637        3.78217        0.417
       22.67829        9.27520       23.36717       -0.834
       22.82739        9.93747       22.69234        0.417
       22.80755        8.44046       22.91691        0.417
        6.79912        5.84027       13.94687       -0.834
        6.55129        5.45490       14.78729        0.417
        7.37386        5.18914       13.54445        0.417
       15.89235        4.96693       23.47107       -0.834
       15.65433        4.86852       24.39297        0.417
       15.08831        5.26567       23.04620        0.417
       18.92754       15.90790        6.76059       -0.834
       18.77717       15.00279        7.03337        0.417
       18.50399       15.97414        5.90476        0.417
        5.44659       14.97577       24.17304       -0.834
        5.95037       15.10740       23.36986        0.417
        6.07355       14.59923       24.79059        0.417
        4.46663       17.72608       18.44312       -0.834
        3.64700       17.47743       18.01578        0.417
        4.36245       17.43592       19.34931        0.417
       15.19847       24.41805       11.63541       -0.834
       14.89595       23.53765       11.41267        0.417
       15.05009       24.93096       10.84097        0.417
       14.51427        9.13676       29.65168       -0.834
       13.88776        8.57460       30.10741        0.417
       14.00141        9.89890       29.38271        0.417
        8.18021        4.73487       19.84814       -0.834
        8.24684        3.78307       19.77155        0.417
        8.98899        4.99747       20.28762        0.417
        9.21170       23.57990       27.85909       -0.834
        8.29161       23.60596       27.59644        0.417
        9.51452       22.71360       27.58696        0.417
       20.73253       18.82437       27.75797       -0.834
       20.28429       18.25988       28.38779        0.417
       20.79933       19.67098       28.19959        0.417
        4.87431       23.16768       16.00691       -0.834
        5.55327       23.07356       16.67503        0.417
        4.45868       22.30649       15.96415        0.417
       14.56234       20.70600       30.01259       -0.834
       14.14531       20.99731       30.82342        0.417
       13.86798       20.25176       29.53535        0.417
        4.80757       14.07454       18.53511       -0.834
        4.57162       13.92253       19.45023        0.417
        4.01378       14.43422       18.13917        0.417
        8.28233       14.25329       10.22963       -0.834
        7.76202       13.96270        9.48059        0.417
        9.13340       14.48241        9.85625        0.417
       19.95027       30.74362       12.98858       -0.834
       19.27670       31.29525       12.59081        0.417
       20.74722       31.27240       12.94989        0.417
       24.35515       16.96928       22.42549       -0.834
       24.86646       16.24718       22.79068        0.417
       24.29596       17.60580       23.13793        0.417
       22.12507       22.02464        5.46983       -0.834
       21.50760       22.74403        5.33780        0.417
       22.57341       21.93578        4.62880        0.417
        7.14819       25.49740       13.88432       -0.834
        8.03475       25.27898       14.17162        0.417
        7.23806       26.34759       13.45381        0.417
       26.01437        9.17298       22.86884       -0.834
       26.54531        9.75951       22.33003        0.417
       26.49452        9.10477       23.69408        0.417
       22.93249       13.10380       16.15253       -0.834
       22.18347       13.59257       15.81148        0.417
       23.67380       13.40210       15.62555        0.417
       10.26471       17.25788       17.24420       -0.834
       10.80727       17.64958       16.55978        0.417
       10.28010       16.31967       17.05509        0.417
        8.08731       20.98079       26.02102       -0.834
        8.22444       21.76903       25.49557        0.417
        7.33684       21.19051       26.57694        0.417
       19.85148       25.75291       13.20494       -0.834
       19.60794       26.14701       12.36732        0.417
       19.02939       25.41298       13.55828        0.417
       30.02616       13.87662       23.64247       -0.834
       29.14434       14.13276       23.91270        0.417
       30.60328       14.49727       24.08739        0.417
       16.44038       21.65941       12.15247       -0.834
       16.76611       21.83886       11.27046        0.417
       17.22668       21.63152       12.69762        0.417
       17.67538       16.19802       31.06921       -0.834
       17.40239       17.11418       31.02079        0.417
       17.16867       15.76016       30.38528        0.417
        9.95581       15.00667        6.78314       -0.834
        9.87925       15.95227        6.91047        0.417
        9.50101       14.83803        5.95794        0.417
       21.60025       22.31286       12.14024       -0.834
       20.71646       22.64960       11.99277        0.417
       21.63105       21.49450       11.64469        0.417
       11.27950        4.61174       12.07389       -0.834
       11.94226        5.00112       12.64430        0.417
       11.65839        3.77601       11.80145        0.417
       12.39298       22.85027       28.01718       -0.834
       12.59334       23.09044       28.92183        0.417
       11.91466       22.02422       28.08850        0.417
       21.36841       17.26779        7.18815       -0.834
       20.59330       16.80667        6.86754        0.417
       21.62392       16.78847        7.97631        0.417
       16.90564       22.40974       20.82452       -0.834
       17.29208       21.64352       21.24855        0.417
       16.43920       22.05536       20.06750        0.417
       10.67188       14.90520       27.91953       -0.834
       10.27981       14.71412       27.06747        0.417
       11.58848       15.09954       27.72378        0.417
       16.52047       27.09384       16.50636       -0.834
       17.09297       26.68445       17.15511        0.417
       17.06166       27.16587       15.72014        0.417
        8.15922        8.68536       16.83613       -0.834
        8.55226        9.07079       17.61920        0.417
        8.16244        7.74316       17.00491        0.417
       24.95960        6.48852       22.25573       -0.834
       25.17136        7.34337       22.63075        0.417
       25.53749        6.40961       21.49675        0.417
       16.85951        1.69979       16.84444       -0.834
       16.52678        2.53189       17.18080        0.417
       17.05137        1.87300       15.92280        0.417
       22.82981       21.43884       28.81687       -0.834
       22.04614       21.97049       28.67742        0.417
       23.52239       22.07472       28.99639        0.417
       25.16367       17.40641       28.72286       -0.834
       25.97281       17.91638       28.76093        0.417
       25.33203       16.73846       28.05824        0.417
       16.52337       20.25858        2.57840       -0.834
       16.72284       19.40484        2.19425        0.417
       16.93503       20.88953        1.98791        0.417
       24.63524       12.75888        9.33087       -0.834
       25.48301       12.95525        9.72958        0.417
       24.84536       12.50885        8.43111        0.417
       24.86515       16.50084       18.77439       -0.834
       24.06806       16.05842       19.06617        0.417
       24.90720       16.32445       17.83452        0.417
        6.88306       13.71079       12.35574       -0.834
        6.21719       14.37281       12.54170        0.417
        7.23707       13.95968       11.50196        0.417
        9.65451        9.74985       19.10406       -0.834
       10.14650        8.98864       18.79628        0.417
        9.49326        9.57270       20.03080        0.417
       21.71471       29.74447       15.00569       -0.834
       20.99085       30.18611       14.56161        0.417
       21.41358       29.63809       15.90804        0.417
       21.81513       24.09012       14.51444       -0.834
       21.20404       24.59956       13.98221        0.417
       22.09857       23.37894       13.93989        0.417
       29.08996        8.35645       21.04007       -0.834
       28.88175        7.94498       21.87886        0.417
       28.67979        9.21998       21.08799        0.417
       16.37640       17.92597       27.63878       -0.834
       16.29385       17.01002       27.90421        0.417
       15.51049       18.30121       27.79890        0.417
       15.42111        8.99060        4.74154       -0.834
       16.13936        9.23885        5.32354        0.417
       14.96967        8.28510        5.20489        0.417
       27.79718       11.82527       25.30326       -0.834
       28.65211       11.47365       25.05491        0.417
       27.65541       12.55758       24.70338        0.417
       15.95337       25.04956        8.34652       -0.834
       16.06123       24.10753        8.47758        0.417
       16.66600       25.44486        8.84865        0.417
        6.38546        9.68879       12.85808       -0.834
        6.31017        9.51206       13.79580        0.417
        6.32274       10.64133       12.78760        0.417
       24.07838       26.69660       14.23768       -0.834
       23.74234       25.90740       14.66249        0.417
       23.41437       26.91918       13.58517        0.417
       23.54982       10.95552        5.53134       -0.834
       22.67841       10.58404        5.66875        0.417
       23.93646       10.41275        4.84422        0.417
       19.83547       17.28802       29.92497       -0.834
       19.12614       16.65921       30.05794        0.417
       20.58616       16.90194       30.37623        0.417
        4.50542       24.84812       13.46859       -0.834
        4.41262       24.17391       14.14169        0.417
        5.41287       25.14237       13.54714        0.417
       15.61857       15.94799       23.86009       -0.834
       14.97447       16.56988       24.19866        0.417
       15.22118       15.60210       23.06092        0.417
       26.91147       18.00922       19.55520       -0.834
       26.12529       17.51949       19.31370        0.417
       26.64859       18.52407       20.31813        0.417
       13.40834        6.85956       19.22369       -0.834
       13.77214        6.66823       18.35924        0.417
       14.14834        7.20202       19.72505        0.417
       16.25539        7.17016        8.54363       -0.834
       17.18879        6.96733        8.60581        0.417
       16.17396        8.04466        8.92423        0.417
       23.20640       18.77555        9.67225       -0.834
       23.37448       17.88566        9.36231        0.417
       23.12099       19.29581        8.87333        0.417
       18.41204       29.38543       17.67838       -0.834
       19.32606       29.13551       17.81384        0.417
       18.35717       29.59904       16.74693        0.417
        9.70983       29.40654       12.36620       -0.834
       10.58409       29.58731       12.02091        0.417
        9.70240       29.82034       13.22930        0.417
       16.71191       20.69361        5.30934       -0.834
       15.85966       20.95865        5.65525        0.417
       16.54750       20.50373        4.38568        0.417
       23.72315       19.26653       12.51116       -0.834
       23.63361       19.31653       11.55947        0.417
       23.41656       20.11686       12.82606        0.417
       15.94875       10.34281       20.20705       -0.834
       15.67676        9.96321       19.37149        0.417
       16.21889       11.23479       19.98882        0.417
       12.19477       21.40585       24.59583       -0.834
       12.23023       22.28837       24.96478        0.417
       12.24091       21.53949       23.64912        0.417
       26.78242       21.46497       14.01832       -0.834
       26.94900       20.94354       13.23309        0.417
       27.33116       21.06492       14.69292        0.417
       26.46787       24.14689       12.80445       -0.834
       26.47204       23.22935       13.07706        0.417
       27.37587       24.32958       12.56280        0.417
       23.44172       13.39065       20.63101       -0.834
       24.32196       13.69527       20.41053        0.417
       22.86204       14.08507       20.31800        0.417
       13.60705        3.65355       17.54697       -0.834
       13.09850        3.43558       18.32805        0.417
       14.50248        3.39346       17.76330        0.417
       17.48153       27.07658       19.56968       -0.834
       17.79946       26.22196       19.27852        0.417
       18.09670       27.70372       19.18957        0.417
       26.77473       15.05769        6.97211       -0.834
       26.62096       14.12849        6.80134        0.417
       26.24972       15.51279        6.31372        0.417
       24.26983       27.02565       10.42757       -0.834
       24.62779       26.18102       10.15426        0.417
       23.99910       26.88909       11.33547        0.417
        5.58920       15.24327       14.28776       -0.834
        4.86403       15.83966       14.47403        0.417
        5.20933       14.36900       14.37481        0.417
       19.82194       18.44428        1.81335       -0.834
       19.96381       19.02241        1.06377        0.417
       19.95804       19.00437        2.57755        0.417
       21.08629       17.17970       11.79927       -0.834
       21.92892       16.84092       11.49686        0.417
       20.53277       17.17810       11.01835        0.417
       18.44023        6.56707       11.83118       -0.834
       18.68056        5.79867       11.31345        0.417