%Nproc=32
%Mem=120Gb
%chk=temp.chk
#p cam-b3lyp/6-31+G(d,p) nosymm charge Freq 

Calculation for S0 with freq for abs spect

0  1
 C         15.67001       17.52951       16.07990
 C         17.29263       15.73382       15.50664
 C         17.69386       15.59301       16.75284
 C         17.02629       16.30618       17.76575
 N         16.02668       17.20797       17.42578
 H         17.67125       15.12497       14.63812
 H         18.45954       14.96849       17.03646
 O         17.17321       16.07324       18.97937
 O         14.84122       18.33227       15.79511
 N         16.36929       16.69331       15.18925
 H         15.95504       16.77448       14.32139
 H         15.50575       17.72944       18.15479
 O         12.99993       14.21762       19.00099
 H         13.18560       14.40819       18.08151
 H         12.10333       13.88244       19.00031
 O         18.71789       12.62449       19.22935
 H         18.02469       12.81813       19.86038
 H         18.26879       12.58158       18.38513
 O         17.78553       18.62564       12.86774
 H         17.54748       19.55269       12.85564
 H         18.43296       18.53497       12.16858
 O         17.64928       21.75831       16.50739
 H         18.24896       21.20924       16.00228
 H         17.78378       21.48798       17.41572
 O         19.16781       12.81927       15.26361
 H         19.74362       12.97772       14.51557
 H         19.53615       12.04570       15.69038
 O         14.77302       18.37293       12.22412
 H         14.22737       17.74374       12.69595
 H         15.61528       18.34813       12.67824
 O         20.15518       15.16247       20.06819
 H         19.53704       14.43286       20.11053
 H         20.38362       15.22998       19.14110
 O         17.22708       19.50838       20.26589
 H         16.86196       18.62506       20.21418
 H         16.71451       19.94031       20.94922
 O         17.65028       16.71924       20.06807
 H         18.55280       16.69629       19.74998
 H         17.57119       15.94254       20.62188
 O         21.62236       15.50562       14.58739
 H         20.72709       15.69793       14.30857
 H         22.10194       16.31944       14.43269
 O         12.15340       17.13298       16.56156
 H         11.66366       17.75828       17.09577
 H         12.34520       17.60709       15.75244
 O         16.29124       11.57631       17.51022
 H         15.44487       11.24227       17.80739
 H         16.12649       12.49585       17.30158
 O         15.16770       17.87228       19.53049
 H         14.38544       17.41379       19.83722
 H         15.83285       17.18807       19.45521
 O         13.79559       20.73354       16.90837
 H         14.18930       21.40438       16.35052
 H         14.35643       19.96641       16.79348
 O         17.06398       15.58284       13.00943
 H         16.86617       15.90721       12.13086
 H         16.21097       15.35375       13.37837
 O         15.56402       13.21649       20.00703
 H         15.34954       13.67610       20.81881
 H         14.97839       13.59825       19.35318
 O         13.67155       20.42139       19.54441
 H         14.07200       19.55734       19.64081
 H         13.89421       20.69103       18.65338
 O         19.33504       19.93883       15.30461
 H         20.11643       19.72909       14.79308
 H         18.68657       20.20644       14.65338
 O         19.48255       16.52268       13.36230
 H         19.02231       17.33216       13.14060
 H         18.79346       15.85997       13.40928
 O         16.98338       11.53707       14.55520
 H         17.68481       12.17186       14.70103
 H         16.84530       11.13115       15.41100
 O         13.75892       15.74240       13.01158
 H         13.53132       14.86724       13.32546
 H         13.03683       16.29796       13.30514
 
       28.99297       17.03024       14.94053       -0.834
       29.60958       16.91304       15.66322        0.417
       29.46208       16.70929       14.17036        0.417
       12.40049       17.18587        3.31767       -0.834
       12.93380       17.86282        2.90108        0.417
       13.03555       16.59767        3.72628        0.417
       22.92202        8.77886       19.60727       -0.834
       22.97489        9.63834       20.02528        0.417
       22.37798        8.25783       20.19784        0.417
       23.66406       17.58750       15.04144       -0.834
       24.04914       17.05013       14.34921        0.417
       24.39959       17.80381       15.61453        0.417
       29.62716       14.62807       17.59068       -0.834
       29.85182       14.07917       18.34199        0.417
       30.45752       15.02368       17.32566        0.417
       27.80131       20.00088       18.19180       -0.834
       27.00183       20.09680       17.67426        0.417
       28.50592       19.98428       17.54413        0.417
       16.09133       30.28112       16.36260       -0.834
       15.51631       30.86890       15.87260        0.417
       16.96880       30.47283       16.03167        0.417
       10.67221        8.83090        9.74678       -0.834
        9.87220        9.34656        9.64518        0.417
       11.13647        9.24863       10.47218        0.417
       18.98916        9.89592       29.65859       -0.834
       18.72886       10.78960       29.88179        0.417
       19.72341        9.70682       30.24284        0.417
       20.08847       15.80170       25.45913       -0.834
       20.72589       16.19664       24.86419        0.417
       20.34701       16.11074       26.32739        0.417
       19.99787       22.29133       20.53261       -0.834
       20.17014       22.38123       21.46988        0.417
       20.86602       22.26992       20.13001        0.417
        8.89514       22.48222       24.78620       -0.834
        9.28270       21.65947       25.08473        0.417
        8.26385       22.22082       24.11585        0.417
        7.73118       15.33551       27.61979       -0.834
        8.40098       15.24161       26.94246        0.417
        7.98409       14.70716       28.29614        0.417
       27.69006       13.18851       19.58383       -0.834
       27.78004       13.55165       20.46489        0.417
       28.52130       12.74226       19.42214        0.417
       17.64173       26.95433       14.53214       -0.834
       17.63079       27.91143       14.54122        0.417
       17.87910       26.72555       13.63350        0.417
       29.41014       20.41998        9.61263       -0.834
       29.00775       21.23262        9.91910        0.417
       28.69122       19.93341        9.20935        0.417
       24.99959       11.12886        8.49345       -0.834
       24.18598       10.94626        8.96348        0.417
       25.53209       10.34382        8.62148        0.417
       19.97671       19.57411       20.52318       -0.834
       19.87556       20.51683       20.65460        0.417
       19.09049       19.26048       20.34295        0.417
       18.42918       28.68921        9.40571       -0.834
       17.81662       28.18332        8.87179        0.417
       18.01776       29.54904        9.49328        0.417
       16.82559        7.58065       10.84313       -0.834
       16.04660        7.26131       11.29856        0.417
       16.50603        8.29684       10.29433        0.417
       22.70067       22.61470       18.91109       -0.834
       22.29282       21.91964       18.39457        0.417
       22.30562       23.42190       18.58155        0.417
       20.66386       17.53334        2.77888       -0.834
       21.55001       17.30761        2.49604        0.417
       20.27104       17.96191        2.01851        0.417
       23.38690       10.95660       16.93467       -0.834
       24.23259       10.98046       17.38240        0.417
       22.75120       11.19436       17.60965        0.417
        4.37756       12.36623       11.24467       -0.834
        4.82886       13.01218       11.78808        0.417
        4.22183       12.81741       10.41496        0.417
       11.99570       13.68166       25.62997       -0.834
       12.92278       13.44566       25.66265        0.417
       11.59019       12.98973       25.10745        0.417
       11.60464       20.45798        4.22858       -0.834
       10.92338       20.62674        3.57770        0.417
       11.12451       20.25125        5.03044        0.417
       22.08161       24.87154       24.67451       -0.834
       21.38289       24.64336       25.28765        0.417
       21.76712       25.66192       24.23561        0.417
        5.97749       25.51107       19.46850       -0.834
        5.98538       26.06348       20.25017        0.417
        6.90115       25.33380       19.29058        0.417
       14.04519       27.11655       12.26448       -0.834
       13.49863       27.86852       12.49264        0.417
       14.55578       27.41103       11.51028        0.417
        4.78968       26.00726       13.41060       -0.834
        5.69813       26.24608       13.22639        0.417
        4.26996       26.64821       12.92552        0.417
       23.19598        8.05978       16.57720       -0.834
       23.28467        8.94114       16.21446        0.417
       23.10501        8.19642       17.52022        0.417
       13.50488       19.81318        2.43759       -0.834
       12.79088       20.06459        3.02339        0.417
       14.18179       19.46689        3.01900        0.417
        7.57142       26.43620       21.76597       -0.834
        8.03685       25.68019       21.40814        0.417
        8.26391       27.01852       22.07836        0.417
       17.42319       21.32355        2.25735       -0.834
       17.91213       21.65015        3.01261        0.417
       16.68354       21.92509        2.17191        0.417
       24.03507        6.18531       13.50588       -0.834
       24.31239        5.46230       12.94321        0.417
       24.10040        5.83631       14.39479        0.417
       22.70481        3.12192       18.30376       -0.834
       23.57170        3.30924       18.66384        0.417
       22.80597        3.24244       17.35958        0.417
       10.49026       10.78242       20.64878       -0.834
       10.83389       10.63512       19.76762        0.417
       11.26117       10.99606       21.17441        0.417
        1.98056       13.29106       13.33542       -0.834
        1.20786       13.33905       12.77252        0.417
        2.52114       14.03317       13.06471        0.417
       18.19006       27.09419       21.09691       -0.834
       17.51259       26.43687       20.93816        0.417
       18.86285       26.62995       21.59498        0.417
       23.04920        3.26702       15.53249       -0.834
       23.67305        3.95336       15.76909        0.417
       22.46916        3.68008       14.89282        0.417
        9.85362       24.38278        9.17189       -0.834
        9.52356       23.70426        8.58290        0.417
        9.21033       24.41990        9.87967        0.417
       21.25783        8.69304       24.18407       -0.834
       21.45576        9.43760       23.61602        0.417
       20.74968        8.09855       23.63217        0.417
       23.79442       28.17669       19.29103       -0.834
       23.31662       27.36097       19.44114        0.417
       24.71005       27.90809       19.21552        0.417
       13.23120       24.64895       19.41001       -0.834
       13.15264       24.15138       18.59607        0.417
       13.39551       23.98664       20.08125        0.417
       26.40876       12.59304        6.38637       -0.834
       25.88553       12.10315        7.02078        0.417
       27.19315       12.05940        6.25912        0.417
       15.54158       25.66187       27.84306       -0.834
       16.37106       25.66573       27.36537        0.417
       15.39177       24.74084       28.05636        0.417
       11.50990       11.22528        7.23246       -0.834
       11.26234       11.90649        6.60724        0.417
       11.40487       11.63709        8.09015        0.417
       24.09804        9.70752       12.13213       -0.834
       23.43697       10.13302       11.58609        0.417
       23.64441        9.51631       12.95303        0.417
       10.54007        8.88464       24.46356       -0.834
       10.48708        8.11206       23.90094        0.417
       11.46676        8.95057       24.69403        0.417
       29.80104       22.92779       12.30136       -0.834
       29.58368       22.32310       13.01082        0.417
       29.04506       23.51213       12.24402        0.417
       27.13206       14.74452       26.75339       -0.834
       26.22507       14.95790       26.97264        0.417
       27.16797       13.78850       26.78465        0.417
       19.08266        6.23473       10.15442       -0.834
       19.83350        6.54769       10.65893        0.417
       18.37612        6.84208       10.37387        0.417
       18.20556       22.42175        7.49674       -0.834
       18.16347       21.76013        8.18719        0.417
       18.94047       22.14898        6.94745        0.417
       21.07879       20.67339       28.88897       -0.834
       20.51321       21.30839       29.32842        0.417
       21.53618       21.18227       28.21959        0.417
       17.05210       23.79814       21.11041       -0.834
       17.81438       24.06235       21.62553        0.417
       17.41499       23.27443       20.39608        0.417
       21.45024       22.57623        9.07497       -0.834
       21.60873       22.21934        8.20104        0.417
       20.97722       23.39350        8.91828        0.417
       15.46669       17.51089       24.72682       -0.834
       16.27265       16.99767       24.78397        0.417
       14.77034       16.88815       24.93543        0.417
        8.01952       14.93972       14.70828       -0.834
        8.61404       15.68261       14.60393        0.417
        7.59322       15.09016       15.55200        0.417
        9.76768       18.81813       29.16831       -0.834
       10.37420       18.19162       29.56308        0.417
        9.61708       18.48224       28.28473        0.417
        9.52330       25.23846       24.20776       -0.834
        9.11664       24.37817       24.10421        0.417
       10.45551       25.08303       24.05590        0.417
       13.42407       22.57297       21.33064       -0.834
       14.05663       22.36955       22.01963        0.417
       13.50756       21.85121       20.70749        0.417
       17.77046        4.14914       11.24012       -0.834
       18.09499        5.00896       10.97249        0.417
       18.55230        3.67498       11.52318        0.417
        6.43171        9.95852       21.70770       -0.834
        7.19144       10.44984       21.39524        0.417
        5.88427        9.84351       20.93097        0.417
       19.28539       15.81318        8.91754       -0.834
       18.43147       16.02432        9.29498        0.417
       19.89051       15.84817        9.65837        0.417
        9.57976       18.43912       14.35907       -0.834
        9.93906       19.13645       14.90756        0.417
        8.80821       18.13258       14.83549        0.417
       17.54704       21.28895       13.40034       -0.834
       17.01910       22.07872       13.51767        0.417
       17.81215       21.31191       12.48087        0.417
       10.14922       28.01592       16.75453       -0.834
       10.23231       28.71267       17.40558        0.417
       10.89790       27.44278       16.91951        0.417
       10.18283       20.47605       22.68903       -0.834
       10.37280       20.65321       23.61031        0.417
        9.57737       19.73493       22.70707        0.417
        7.91947       15.83056        4.60692       -0.834
        8.22979       15.34121        5.36881        0.417
        7.08488       16.20652        4.88682        0.417
       15.61646        7.77197       24.14900       -0.834
       14.75341        8.13809       24.34218        0.417
       15.59546        6.89407       24.52990        0.417
       10.82250       26.23239       19.93602       -0.834
       11.64814       25.94192       19.54849        0.417
       10.33838       25.42379       20.10343        0.417
       20.17755        9.44851        8.76639       -0.834
       19.98546        8.51363        8.69329        0.417
       19.31900        9.86455        8.84408        0.417
       21.90212       14.15314        8.08756       -0.834
       21.30581       14.40343        7.38187        0.417
       22.74558       14.02290        7.65416        0.417
       27.67210       25.22080       12.44903       -0.834
       27.06273       25.90777       12.17891        0.417
       27.11101       24.51539       12.77123        0.417
       22.14756       14.41767       28.21184       -0.834
       22.03538       13.85428       28.97750        0.417
       21.94516       13.85250       27.46629        0.417
       11.68695       25.72596       14.12138       -0.834
       11.01114       26.36990       14.33314        0.417
       12.27902       26.18622       13.52653        0.417
       16.50691       19.72938       22.97011       -0.834
       17.44700       19.65658       23.13495        0.417
       16.10493       19.14102       23.60923        0.417
       24.66142       21.46098        8.62366       -0.834
       24.38578       22.03612        7.90989        0.417
       23.95157       20.82422        8.70653        0.417
        5.02693       14.51667       25.28869       -0.834
        4.60706       14.93388       24.53644        0.417
        4.44402       13.79287       25.51798        0.417
       25.09133       12.05730       28.85933       -0.834
       24.30806       11.50743       28.84037        0.417
       25.24519       12.28750       27.94305        0.417
       23.79696       12.41197       23.77435       -0.834
       23.01820       12.96853       23.77251        0.417
       24.47974       12.95328       23.37808        0.417
       22.86645       19.78476       24.00921       -0.834
       23.02552       19.31296       23.19169        0.417
       21.94731       20.04739       23.95979        0.417
       24.99439        5.56038       15.92396       -0.834
       25.87128        5.33394       16.23382        0.417
       24.77908        6.37137       16.38457        0.417
       11.97349       12.05211       28.94994       -0.834
       12.30433       12.91603       28.70417        0.417
       11.46361       11.76588       28.19209        0.417
       13.13852       30.19376       16.03480       -0.834
       12.84325       31.10164       15.96552        0.417
       13.94656       30.24251       16.54561        0.417
       15.59320       18.45873        9.13632       -0.834
       15.05079       19.14267        8.74358        0.417
       15.59298       18.66006       10.07211        0.417
        8.18212       26.48788       18.45708       -0.834
        8.64087       26.72357       19.26345        0.417
        8.46772       27.14144       17.81870        0.417
       25.42139       15.33945       16.73140       -0.834
       24.93770       15.72537       17.46171        0.417
       24.84010       14.65926       16.39130        0.417
       20.27538        8.30493        3.49806       -0.834
       19.48899        7.75920        3.49987        0.417
       20.17957        8.86648        4.26729        0.417
       10.86425        6.14320       23.45733       -0.834
       10.89969        5.40900       22.84420        0.417
       11.23165        5.79526       24.26985        0.417
       15.60486       21.06903        9.98024       -0.834
       14.87077       20.97291       10.58695        0.417
       15.55516       21.97838        9.68554        0.417
       20.85241        9.63285        6.22039       -0.834
       20.34903        9.65501        7.03424        0.417
       21.53300        8.97823        6.37693        0.417
       14.97436       23.56991        9.44635       -0.834
       15.59989       24.23613        9.73110        0.417
       14.11683       23.94300        9.65051        0.417
       23.62291       12.53301        3.46631       -0.834
       22.78401       12.21770        3.80256        0.417
       24.05608       11.74904        3.12869        0.417
       12.81210       10.19178       11.49725       -0.834
       13.73742       10.38678       11.64556        0.417
       12.60928        9.49851       12.12533        0.417
        4.16467       22.97385       12.64434       -0.834
        3.33735       23.28491       13.01177        0.417
        4.83802       23.39722       13.17687        0.417
        8.36406       10.41439        9.44516       -0.834
        7.73486       10.43875       10.16610        0.417
        8.53834       11.33461        9.24754        0.417
       18.35256       21.79742       10.70274       -0.834
       17.77919       22.47193       10.33872        0.417
       18.34049       21.09546       10.05210        0.417
        9.20710       21.18794       10.90182       -0.834
        9.64235       20.96221       10.07976        0.417
        9.89218       21.10938       11.56564        0.417
       23.18845       17.80320       28.59149       -0.834
       22.41058       17.46318       28.14931        0.417
       22.90306       18.63222       28.97557        0.417
       17.75768       14.74099       22.11540       -0.834
       17.87272       13.79181       22.16075        0.417
       17.38849       14.97890       22.96589        0.417
       15.21653       25.78451       21.23366       -0.834
       15.92794       25.15416       21.12058        0.417
       14.57148       25.53997       20.57008        0.417
       21.27588       14.95029       17.49744       -0.834
       21.48415       15.10793       16.57657        0.417
       21.51291       14.03451       17.64372        0.417
        7.55695       18.71619       22.94368       -0.834
        6.92988       19.42463       22.79829        0.417
        7.27735       18.31314       23.76563        0.417
       20.16912       26.20542       12.82336       -0.834
       19.74543       26.85692       12.26454        0.417
       20.15446       25.39993       12.30646        0.417
        7.51512       23.95623       11.08051       -0.834
        7.97022       23.80624       11.90913        0.417
        7.41943       24.90718       11.02798        0.417
        9.07374        3.93744       19.90626       -0.834
        8.51221        4.22865       19.18785        0.417
        9.91179        4.37151       19.74687        0.417
       19.57870       18.40813       29.81435       -0.834
       18.66170       18.56570       29.58959        0.417
       20.05003       19.14859       29.43252        0.417
       12.45653       24.67965        9.49803       -0.834
       12.59737       24.74292        8.55337        0.417
       11.50739       24.74391        9.60400        0.417
       15.54306       12.35894       26.61055       -0.834
       16.22281       12.92079       26.98270        0.417
       15.33263       11.74098       27.31061        0.417
       13.83509       10.14917       18.49572       -0.834
       14.19540        9.26454       18.43373        0.417
       14.20272       10.50179       19.30612        0.417
       19.88296        7.47141       27.96573       -0.834
       20.39975        8.07776       27.43516        0.417
       19.21453        8.02065       28.37531        0.417
       23.65553       23.19644        6.67052       -0.834
       23.33299       24.02881        7.01601        0.417
       23.99113       23.41170        5.80031        0.417
       25.89255       17.18238       22.74040       -0.834
       26.12852       17.45457       21.85357        0.417
       26.54365       17.60319       23.30184        0.417
       23.46943       15.93157       18.77168       -0.834
       23.70149       15.52863       19.60836        0.417
       22.75816       15.38807       18.43266        0.417
       18.13963       11.32957        8.92561       -0.834
       17.37307       10.86520        9.26173        0.417
       18.00722       11.35694        7.97801        0.417
       16.85271       25.34226       10.54272       -0.834
       16.77551       26.14914       11.05186        0.417
       17.24486       25.61789        9.71418        0.417
       19.77957        9.40038       15.24101       -0.834
       19.04369        9.68703       14.70014        0.417
       19.97563        8.51643       14.93048        0.417
       25.66148       20.80501       22.64166       -0.834
       26.09268       20.02945       23.00056        0.417
       26.30244       21.17730       22.03602        0.417
       22.40438        2.78830       12.29437       -0.834
       22.54119        1.90870       12.64626        0.417
       21.68078        3.14344       12.81061        0.417
       27.30221       21.62766       20.67947       -0.834
       27.48197       21.02446       19.95832        0.417
       27.96582       22.31181       20.59117        0.417
        6.25255       21.94113        9.56611       -0.834
        5.83368       21.36098       10.20187        0.417
        6.72836       22.57791       10.09935        0.417
       12.53734       24.99519        6.48715       -0.834
       11.86842       25.65874        6.65595        0.417
       13.26249       25.48021        6.09328        0.417
        7.45939       14.03649       17.33213       -0.834
        7.29190       14.39182       18.20501        0.417
        8.40079       14.15164       17.20273        0.417
        4.44411       10.25116       19.49035       -0.834
        4.92892        9.67678       18.89765        0.417
        3.74039        9.70143       19.83504        0.417
       21.36952       12.56455       26.47377       -0.834
       21.88042       11.77131       26.31262        0.417
       21.16956       12.90268       25.60090        0.417
        3.94469       15.59157       13.75797       -0.834
        4.43898       14.78176       13.88497        0.417
        4.42546       16.06188       13.07687        0.417
       29.75062       20.69402       21.86295       -0.834
       28.79786       20.78351       21.88455        0.417
       30.00826       20.64782       22.78367        0.417
       13.45016       26.62555       26.45405       -0.834
       14.05150       26.13018       27.01014        0.417
       13.08049       25.97293       25.85936        0.417
       27.90065       13.43153       15.92510       -0.834
       27.20870       14.08258       16.04162        0.417
       28.65776       13.80223       16.37852        0.417
       11.18060       14.34289       16.19437       -0.834
       10.58522       14.07205       16.89323        0.417
       11.40698       15.24778       16.40922        0.417
       13.90851        6.62326       20.27187       -0.834
       14.74994        6.22249       20.49007        0.417
       13.92148        7.46834       20.72120        0.417
        8.06178        7.03634       24.83434       -0.834
        8.60790        6.25036       24.81929        0.417
        8.29693        7.50730       24.03489        0.417
       27.22037        8.35698       17.76219       -0.834
       26.37584        8.05400       18.09565        0.417
       27.86765        7.84730       18.24951        0.417
       15.66079       15.24289       26.89071       -0.834
       14.88152       14.94211       27.35815        0.417
       15.94209       16.02236       27.36978        0.417
       17.84945       29.52757       22.63192       -0.834
       16.97009       29.84752       22.43043        0.417
       17.86386       28.63373       22.28975        0.417
       11.24884       28.69865       21.17366       -0.834
       11.07633       27.79367       20.91391        0.417
       10.98649       28.73853       22.09334        0.417
       21.14611       14.34737        5.47227       -0.834
       21.27516       13.40205        5.54934        0.417
       20.85445       14.47699        4.56985        0.417
        4.56490       19.10163       19.09891       -0.834
        5.36845       19.61658       19.02575        0.417
        4.13158       19.44285       19.88123        0.417
       28.92929       10.12441       12.90752       -0.834
       28.89561        9.45099       13.58693        0.417
       28.01183       10.32806       12.72579        0.417
       13.45339        9.77281        8.55354       -0.834
       12.74639       10.11287        8.00514        0.417
       13.01778        9.18133        9.16724        0.417
       20.94028       16.60773       27.92240       -0.834
       21.22876       15.73571       28.19182        0.417
       20.52889       16.97656       28.70404        0.417
       21.64711       20.05813       13.82862       -0.834
       22.35687       19.42807       13.95316        0.417
       21.70349       20.30372       12.90518        0.417
       30.42375       18.47063       17.58992       -0.834
       31.20320       18.70828       18.09211        0.417
       29.90869       17.92923       18.18812        0.417
       19.62563       14.78688        2.84806       -0.834
       20.04096       14.26594        2.16084        0.417
       19.89507       15.68657        2.66324        0.417
       20.54878        7.07845       21.66965       -0.834
       19.93212        6.39918       21.94269        0.417
       21.39984        6.64043       21.66077        0.417
       13.37555       24.00571        4.00145       -0.834
       13.85748       24.77694        4.30007        0.417
       13.83829       23.26617        4.39538        0.417
       17.03927       21.48511       27.96731       -0.834