%Nproc=32
%Mem=120Gb
%chk=temp.chk
#p cam-b3lyp/6-31+G(d,p) nosymm charge Freq 

Calculation for S0 with freq for abs spect

0  1
 C         15.67001       17.52951       16.07990
 C         17.29263       15.73382       15.50664
 C         17.69386       15.59301       16.75284
 C         17.02629       16.30618       17.76575
 N         16.02668       17.20797       17.42578
 H         17.67125       15.12497       14.63812
 H         18.45954       14.96849       17.03646
 O         17.17321       16.07324       18.97937
 O         14.84122       18.33227       15.79511
 N         16.36929       16.69331       15.18925
 H         15.95504       16.77448       14.32139
 H         15.50575       17.72944       18.15479
 O         19.44067       19.05539       17.28425
 H         18.82911       18.84005       17.98842
 H         19.06288       19.82940       16.86662
 O         15.13381       18.21429       11.98943
 H         15.46130       17.37594       11.66364
 H         15.54451       18.86845       11.42407
 O         13.47579       17.13865       14.30173
 H         12.76114       16.86283       13.72777
 H         14.05480       17.64914       13.73570
 O         21.39934       17.98484       15.57029
 H         21.23186       18.27473       14.67354
 H         20.60395       18.21638       16.04985
 O         19.18863       18.31231       12.02217
 H         19.31092       19.22486       12.28397
 H         18.78734       17.89558       12.78475
 O         16.78584       15.96555       11.67427
 H         17.42463       16.49620       12.15028
 H         16.99693       16.10644       10.75133
 O         13.70359       19.15600       16.09670
 H         13.37165       18.39858       15.61467
 H         13.05235       19.30899       16.78132
 O         18.59401       13.48564       15.14997
 H         18.46710       13.00817       15.96982
 H         18.33393       12.86578       14.46853
 O         15.30191       19.81307       14.11507
 H         15.10146       19.23101       13.38210
 H         14.49702       19.83303       14.63274
 O         20.80853       15.00247       15.79408
 H         20.79153       15.93781       15.99675
 H         19.91172       14.79796       15.52924
 O         15.37661       20.95755       17.99639
 H         14.71008       20.36739       17.64470
 H         15.13239       21.82108       17.66337
 O         14.22766       11.82246       18.52896
 H         14.67069       12.02349       19.35331
 H         14.51557       12.50961       17.92799
 O         16.15129       13.58133       13.47745
 H         15.55679       13.23573       12.81160
 H         16.75888       14.13835       12.99083
 O         17.52166       20.89644       15.36879
 H         16.68276       20.69090       14.95621
 H         17.37890       21.74166       15.79477
 O         18.81096       15.56603       19.45794
 H         19.42928       16.29581       19.49430
 H         19.31284       14.84497       19.07791
 O         13.65871       13.52276       14.77230
 H         14.47302       13.56636       14.27107
 H         13.82410       14.06133       15.54614
 O         18.25351       19.72857       19.75477
 H         17.51294       19.87406       20.34351
 H         18.86228       19.19241       20.26285
 O         15.78971       13.24875       20.63288
 H         15.93461       14.18798       20.51852
 H         15.74765       13.12613       21.58126
 O         16.37921       16.03819       20.78319
 H         16.65214       16.63060       21.48375
 H         17.16392       15.92253       20.24739
 O         19.79122       19.88997       14.14966
 H         20.05798       20.63879       13.61642
 H         19.12407       20.24094       14.73955
 
       16.87000       13.41497        4.44934       -0.834
       16.24266       12.78382        4.09675        0.417
       17.49775       12.88223        4.93755        0.417
       29.98661       17.55757       19.84398       -0.834
       30.04296       17.89287       18.94920        0.417
       30.52890       18.15517       20.35880        0.417
       18.13945       23.87781       19.27657       -0.834
       18.27523       23.02404       18.86562        0.417
       18.97743       24.07980       19.69278        0.417
       16.63471       25.53464        4.97449       -0.834
       17.14945       25.53936        5.78149        0.417
       16.29600       24.64161        4.91111        0.417
       18.63790       31.26423       21.90539       -0.834
       18.49618       31.00896       22.81698        0.417
       18.46500       30.46772       21.40348        0.417
       14.19014       21.55000        9.14293       -0.834
       14.80649       20.87490        9.42680        0.417
       13.52488       21.07392        8.64593        0.417
       12.15134        3.27866       13.48829       -0.834
       13.01847        3.34730       13.08877        0.417
       11.57048        3.73740       12.88134        0.417
       24.31266        6.03276       11.81149       -0.834
       24.95446        6.66422       11.48655        0.417
       23.81928        6.51272       12.47666        0.417
       12.53002        7.70297       28.48603       -0.834
       12.09359        6.87373       28.68126        0.417
       12.60871        7.71399       27.53213        0.417
        6.95364       26.06251       22.07716       -0.834
        7.06275       27.01275       22.11413        0.417
        7.68251       25.71702       22.59254        0.417
       21.51624       14.76411       24.81611       -0.834
       20.88515       14.74911       24.09658        0.417
       21.14856       14.16982       25.47024        0.417
        6.55284       20.13424       20.40816       -0.834
        7.48803       20.31308       20.50642        0.417
        6.16430       20.42897       21.23181        0.417
       11.24874       22.17548       16.34366       -0.834
       10.38700       22.58161       16.43696        0.417
       11.36269       21.66716       17.14669        0.417
       26.36832       23.03500       21.41114       -0.834
       27.08714       23.58270       21.72665        0.417
       26.79210       22.37656       20.86059        0.417
       28.18099        9.08087       14.02337       -0.834
       29.08542        8.81193       13.86240        0.417
       27.81924        8.38787       14.57574        0.417
        5.70472       13.28911       24.20378       -0.834
        4.99955       13.82484       23.84051        0.417
        6.25648       13.90955       24.68006        0.417
       16.35477        7.13951       17.34601       -0.834
       16.08458        7.83468       17.94598        0.417
       16.72121        7.60198       16.59230        0.417
       11.32804       21.37580       18.96285       -0.834
       10.81016       21.59317       19.73795        0.417
       11.47727       20.43274       19.03067        0.417
       13.24288       18.25713       27.02792       -0.834
       12.75665       17.49014       26.72539        0.417
       13.55790       18.67340       26.22560        0.417
       17.60257       10.50284       28.20765       -0.834
       18.18566       10.50183       27.44854        0.417
       17.89594       11.24613       28.73460        0.417
       15.59837       13.41666        7.82027       -0.834
       15.82630       13.17332        6.92301        0.417
       14.64416       13.34824        7.85245        0.417
        9.56095       18.73036       13.99274       -0.834
        9.37503       18.39712       14.87059        0.417
        8.90858       18.30922       13.43302        0.417
       10.85092        4.41426        9.26453       -0.834
       11.80743        4.43287        9.29591        0.417
       10.58235        4.33198       10.17959        0.417
       12.73224       24.29464       14.87713       -0.834
       13.00112       24.74971       15.67516        0.417
       12.32732       23.48476       15.18754        0.417
       15.50830       12.31865       29.72568       -0.834
       15.72659       12.24921       28.79629        0.417
       14.56733       12.49366       29.73877        0.417
        8.55465       23.36037       16.97411       -0.834
        8.41971       24.21400       16.56262        0.417
        8.41571       23.51935       17.90773        0.417
       11.47445        5.53559       23.00824       -0.834
       10.56872        5.27768       22.83690        0.417
       11.74048        4.99699       23.75347        0.417
       11.78681       16.41301        4.76549       -0.834
       11.85926       17.36620        4.81445        0.417
       10.96708       16.21114        5.21662        0.417
       14.45984       27.99209       17.12140       -0.834
       15.36327       27.86785       16.83053        0.417
       14.11935       28.68626       16.55711        0.417
       16.92222        2.97572       11.12034       -0.834
       17.80282        2.63586       10.96139        0.417
       16.52285        3.02306       10.25172        0.417
       22.32249        9.31859       19.86380       -0.834
       22.13687        8.59030       19.27103        0.417
       23.18928        9.62756       19.60029        0.417
       30.32587       12.53313       19.08358       -0.834
       29.64629       12.65173       19.74716        0.417
       30.84639       11.79575       19.40228        0.417
       29.69986       17.01099       23.32709       -0.834
       29.50441       16.55069       22.51090        0.417
       29.31883       17.88111       23.20906        0.417
       23.10890        2.76708       14.99194       -0.834
       22.41403        3.33948       15.31713        0.417
       23.91988        3.18944       15.27504        0.417
        8.22415       25.71958       16.11414       -0.834
        9.01276       26.25738       16.04272        0.417
        7.89002       25.66350       15.21890        0.417
       23.72596       21.57199       24.27305       -0.834
       23.66724       20.62034       24.35764        0.417
       23.44867       21.90630       25.12604        0.417
       12.08013        3.89293       20.59033       -0.834
       11.95506        4.28717       21.45356        0.417
       12.47255        4.58892       20.06322        0.417
       18.71976       21.54834       24.36806       -0.834
       18.79130       22.50260       24.34564        0.417
       19.36274       21.24436       23.72743        0.417
        8.87084       22.64503       22.85968       -0.834
        9.63899       23.21130       22.93396        0.417
        8.45080       22.69652       23.71825        0.417
       18.48796        8.34434       19.18023       -0.834
       17.81049        8.99840       19.00856        0.417
       18.89451        8.19039       18.32745        0.417
       12.28299        8.50807       20.47794       -0.834
       12.95827        8.06268       20.98965        0.417
       11.62509        7.83339       20.30998        0.417
        5.88591       21.17148       22.84869       -0.834
        6.26592       22.01834       23.08245        0.417
        5.95258       20.64958       23.64832        0.417
       15.77667       26.12686       24.00227       -0.834
       16.19581       25.49438       23.41873        0.417
       15.38330       25.59271       24.69232        0.417
       10.50829        5.20758       17.88052       -0.834
       10.52725        4.83246       17.00009        0.417
       11.41836        5.44335       18.06057        0.417
       13.18994       14.53682        7.04052       -0.834
       13.23302       14.17466        6.15553        0.417
       12.34284       14.24566        7.37800        0.417
       15.24237        6.75470       24.42181       -0.834
       15.14237        5.90102       24.00055        0.417
       16.12901        6.74204       24.78230        0.417
       10.87192       22.09522        7.49723       -0.834
       11.44627       22.08567        6.73155        0.417
       10.57642       23.00319        7.56425        0.417
       19.31945       21.11458        7.22615       -0.834
       18.87005       21.58934        7.92534        0.417
       18.83150       21.33668        6.43317        0.417
        4.74048       14.08860        9.82052       -0.834
        4.13062       14.64422        9.33515        0.417
        4.18608       13.42447       10.23015        0.417
       26.77510        7.56101       18.39020       -0.834
       27.72662        7.58153       18.49230        0.417
       26.46961        6.99698       19.10067        0.417
       14.36929       25.14912       26.19000       -0.834
       14.82686       24.35070       26.45342        0.417
       14.75053       25.83581       26.73712        0.417
       13.59775        5.04529        9.17044       -0.834
       14.03204        5.80101        9.56606        0.417
       13.77614        5.12917        8.23375        0.417
       10.06299       24.86647        7.66024       -0.834
       10.60342       25.17176        6.93157        0.417
        9.84891       25.66082        8.14953        0.417
        8.19770       18.94261       22.82468       -0.834
        7.99675       19.80112       23.19725        0.417
        7.53732       18.35861       23.19761        0.417
       17.21066        7.47337       12.71849       -0.834
       17.59602        7.65102       11.86049        0.417
       17.91603        7.65281       13.34018        0.417
       18.00307       29.08560       20.28283       -0.834
       17.91468       29.60205       19.48177        0.417
       17.72480       28.20466       20.03235        0.417
       24.20695       15.63915       25.27560       -0.834
       24.70864       15.21898       24.57702        0.417
       23.34758       15.80449       24.88782        0.417
       26.93082       20.61153       10.82889       -0.834
       27.46724       21.38406       10.65091        0.417
       27.48363       19.87210       10.57613        0.417
        6.93299       24.82351       13.51780       -0.834
        6.83894       23.95785       13.91532        0.417
        6.34504       24.80598       12.76266        0.417
       26.45969       21.49027        7.74571       -0.834
       25.97620       20.76836        8.14737        0.417
       25.79733       21.98192        7.26014        0.417
       12.97376       20.35897        5.76379       -0.834
       12.56287       19.80329        5.10151        0.417
       13.64577       20.84503        5.28590        0.417
       11.44917       19.24704        3.93678       -0.834
       10.61386       19.54106        3.57339        0.417
       11.98246       19.03424        3.17091        0.417
       11.84472       16.10702       26.16095       -0.834
       11.36766       16.07541       26.99019        0.417
       11.16736       16.01604       25.49077        0.417
        7.40513       22.08607       14.41204       -0.834
        7.58299       22.20933       15.34445        0.417
        8.26472       21.92488       14.02301        0.417
       16.24019       18.68386       27.36102       -0.834
       16.21588       18.01564       28.04594        0.417
       15.40075       18.59548       26.90961        0.417
        8.13087       23.49611        9.05104       -0.834
        8.90497       23.88106        8.64016        0.417
        7.87575       24.12893        9.72237        0.417
       16.18204        2.18419       14.37482       -0.834
       15.64655        2.80229       13.87739        0.417
       15.62310        1.91491       15.10372        0.417
        4.71697       13.08631       17.92172       -0.834
        4.93082       13.95827       18.25366        0.417
        4.64189       12.54272       18.70600        0.417
       15.01146        6.30377       13.90298       -0.834
       15.74874        6.62323       13.38279        0.417
       14.82223        7.01604       14.51379        0.417
       11.99043       23.53725       28.64505       -0.834
       11.92299       22.84313       27.98941        0.417
       12.92082       23.56723       28.86798        0.417
       21.36052        4.74728       15.97332       -0.834
       20.41481        4.89514       15.97531        0.417
       21.61388        4.80174       16.89477        0.417
       10.84274       25.33579       26.20094       -0.834
       11.03883       26.08238       26.76696        0.417
       11.65878       24.83637       26.17114        0.417
       10.32761       27.15826        8.89604       -0.834
       10.69388       27.60941        8.13542        0.417
       10.96511       27.30840        9.59409        0.417
       23.58338       14.27696        8.81959       -0.834
       24.07034       15.03192        9.14996        0.417
       24.11526       13.52090        9.06802        0.417
        9.95345        8.84397        9.80368       -0.834
        9.15521        8.45383       10.15985        0.417
        9.77716        8.93896        8.86767        0.417
       16.19065       28.44908       14.54890       -0.834
       16.41039       27.56369       14.83879        0.417
       16.37238       28.44593       13.60911        0.417
       25.94423       10.05819        7.76587       -0.834
       25.05577       10.41379        7.74527        0.417
       26.51021       10.81860        7.63285        0.417
       30.51589       10.96042       15.96796       -0.834
       29.73993       10.98558       16.52787        0.417
       30.31215       11.55799       15.24849        0.417
       11.59647       26.50215       13.24282       -0.834
       12.14255       26.04911       13.88530        0.417
       11.35465       25.82368       12.61240        0.417
       25.59177       25.38687       18.12573       -0.834
       26.52162       25.41953       18.35054        0.417
       25.13957       25.58833       18.94498        0.417
        5.92173        9.60800       20.16087       -0.834
        5.35420       10.14073       20.71796        0.417
        5.64819        9.81892       19.26816        0.417
       19.44348        7.35588       26.69162       -0.834
       19.77680        7.04294       27.53257        0.417
       19.42491        6.57674       26.13589        0.417
       14.61418        2.31172       16.70375       -0.834
       13.68934        2.18842       16.91753        0.417
       14.76573        3.24898       16.82546        0.417
       27.82011       18.92000       22.98049       -0.834
       28.30610       19.51040       22.40475        0.417
       27.28815       19.50006       23.52527        0.417
       25.23535       10.14908       15.10350       -0.834
       25.45454        9.37148       14.59016        0.417
       24.30108       10.05763       15.29060        0.417
        7.74776       12.72369       20.92541       -0.834
        6.96367       12.29509       21.26854        0.417
        7.65680       12.66465       19.97437        0.417
       15.53571       24.05625       22.07574       -0.834
       14.77115       24.62922       22.13381        0.417
       15.27848       23.37506       21.45441        0.417
       11.16530       14.84448        1.99431       -0.834
       11.56695       15.60027        2.42289        0.417
       10.36446       14.68322        2.49320        0.417
        6.02240       16.84586       13.25880       -0.834
        6.51995       17.06975       12.47232        0.417
        5.38943       17.55768       13.35307        0.417
       22.02377       28.69029       15.11442       -0.834
       22.35074       27.80137       14.97602        0.417
       21.07422       28.61403       15.02072        0.417
        5.85570       19.38114       25.04657       -0.834
        5.64076       18.72765       24.38100        0.417
        6.64145       19.03955       25.47336        0.417
       21.06410       11.25273       28.17172       -0.834
       20.84906       10.70691       28.92807        0.417
       21.78920       10.79639       27.74485        0.417
       17.38944       11.14773       20.07822       -0.834
       17.00043       12.02231       20.07387        0.417
       18.07624       11.19387       20.74336        0.417
       14.05124       16.60594       22.96066       -0.834
       14.81205       16.88345       23.47095        0.417
       14.35586       15.84117       22.47224        0.417
       22.47244        5.30347       18.62143       -0.834
       21.88571        5.07001       19.34079        0.417
       23.21882        4.71216       18.71897        0.417
        3.30941        8.53924       16.97864       -0.834
        3.63829        9.35301       17.36054        0.417
        4.08300        8.12246       16.59905        0.417
       22.18049       31.28342       14.79163       -0.834
       22.26309       30.34744       14.97427        0.417
       21.99668       31.32955       13.85338        0.417
       23.34520       11.86961        6.55384       -0.834
       22.67522       11.57575        7.17109        0.417
       23.37781       12.81928        6.66920        0.417
       28.95801       12.95002       14.64111       -0.834
       28.48691       13.41355       15.33353        0.417
       28.57558       12.07255       14.63658        0.417
       17.54072       10.05309        7.67819       -0.834
       16.71825        9.62379        7.44264        0.417
       17.42869       10.29899        8.59646        0.417
       12.54309        9.27868       23.82646       -0.834
       13.35226        9.60541       24.21980        0.417
       12.62154        8.32582       23.87257        0.417
        7.08814       10.72180       13.77458       -0.834
        6.59335       11.51577       13.97713        0.417
        6.44179       10.01742       13.82260        0.417
       28.62217       24.94931       17.58207       -0.834
       29.42583       24.58703       17.20911        0.417
       28.91668       25.46127       18.33532        0.417
        7.35975       18.87661        4.96825       -0.834
        7.36048       18.99182        4.01801        0.417
        7.96275       19.54599        5.29161        0.417
       19.58178        7.83624       13.91865       -0.834
       19.90186        7.33168       13.17085        0.417
       19.70269        8.75014       13.66097        0.417
        6.18837       22.03134       10.74014       -0.834
        6.45825       22.52915        9.96840        0.417
        6.99765       21.63887       11.06765        0.417
       12.92337       22.13820       21.89701       -0.834
       13.20151       21.23840       21.72603        0.417
       12.74720       22.16032       22.83759        0.417
        9.15432       20.96145       25.78092       -0.834
        9.13829       20.52638       26.63338        0.417
        8.38091       21.52541       25.78473        0.417
       17.54985        9.21174       15.81553       -0.834
       16.91713        9.62062       15.22501        0.417
       18.36672        9.19383       15.31688        0.417
        8.07998       25.29297       11.14500       -0.834
        7.72317       25.19755       12.02807        0.417
        7.97730       26.22315       10.94388        0.417
        9.06121       20.20889       17.50557       -0.834
        9.54820       20.78706       18.09277        0.417
        9.38943       19.33220       17.70538        0.417
        7.94221       11.56997       18.21529       -0.834
        8.79058       11.19212       18.44708        0.417
        8.14885       12.45169       17.90527        0.417
        7.84118       18.73850       11.69607       -0.834
        7.40485       18.54558       10.86623        0.417
        7.86511       19.69448       11.73806        0.417
       26.93558        6.87588       15.50901       -0.834
       26.75408        7.28702       16.35415        0.417
       27.01738        5.94327       15.70846        0.417
       21.68390       18.63109       22.76719       -0.834
       21.56562       18.27293       23.64694        0.417
       21.41534       19.54673       22.84275        0.417
       23.82013       20.49134       14.06425       -0.834
       24.11350       20.11863       13.23283        0.417
       23.27731       19.80702       14.45577        0.417
       23.93196        9.61891       10.27105       -0.834
       23.64220        9.25464        9.43464        0.417
       24.71792        9.11886       10.49119        0.417
       14.62753       30.42439       15.14025       -0.834
       15.16318       29.64837       14.97561        0.417
       15.09143       31.13466       14.69692        0.417
        5.58757       10.07227       17.51371       -0.834
        5.85376        9.54460       16.76076        0.417
        6.13109       10.85837       17.46005        0.417
       24.68380       28.39926       16.67512       -0.834
       24.09148       28.87484       17.25754        0.417
       24.14061       27.71184       16.28960        0.417
        7.14488       17.69967       15.39926       -0.834
        7.01266       17.32855       14.52689        0.417
        6.28684       17.63774       15.81898        0.417
       10.66795       24.53766       23.31214       -0.834
       10.29995       25.02821       24.04710        0.417
       11.42354       25.05467       23.03282        0.417
        7.99411        5.20731       19.31283       -0.834
        7.54792        5.91779       18.85201        0.417
        8.81116        5.08376       18.82972        0.417
       24.78488       14.58650        4.33263       -0.834
       24.30305       14.00896        3.74058        0.417
       25.63015       14.15417        4.45445        0.417
       24.47417       16.73240       11.73077       -0.834
       25.11848       16.42012       11.09549        0.417
       24.44836       17.68031       11.60024        0.417
       17.07495       26.45883       19.84948       -0.834
       17.31692       25.53339       19.88481        0.417
       17.08621       26.67440       18.91694        0.417
       17.84306        7.74028       28.92560       -0.834
       18.27408        7.44479       28.12364        0.417
       17.53501        8.62319       28.72117        0.417
        4.49600       20.89011       16.17402       -0.834
        5.29383       20.65824       16.64935        0.417
        4.30516       20.12162       15.63621        0.417
        4.41686       18.32140       10.21978       -0.834
        4.06893       18.15955        9.34287        0.417
        5.21855       17.79994       10.25990        0.417
       22.29982       24.66479       23.33315       -0.834
       23.01091       25.30551       23.32535        0.417
       21.94577       24.71002       24.22132        0.417
       12.74336       13.94921       19.98432       -0.834
       12.64059       13.75542       20.91605        0.417
       13.59867       13.58491       19.75636        0.417
       29.10226       22.87120       13.54503       -0.834
       28.62171       23.65303       13.81712        0.417
       28.53390       22.14188       13.79260        0.417
       12.04347        2.24245       17.83360       -0.834
       11.11754        2.13869       17.61427        0.417
       12.04756        2.84104       18.58053        0.417
       12.60302       21.58457       26.91896       -0.834
       12.15779       21.77542       26.09338        0.417
       13.52372       21.78127       26.74615        0.417
       24.04855       25.65565       20.68181       -0.834
       24.77516       25.77582       21.29322        0.417
       23.69959       24.78924       20.89110        0.417
       29.68830       21.75363       17.08636       -0.834
       29.87063       22.43213       16.43626        0.417
       28.84189       21.99995       17.45940        0.417
       15.94205       28.92699       23.05804       -0.834
       16.00588       27.99078       23.24689        0.417
       15.08365       29.18205       23.39616        0.417
        7.78292        7.19423        9.89818       -0.834
        7.57014        6.77273       10.73082        0.417
        7.86874        6.47037        9.27779        0.417
       21.42450       28.18374       23.46894       -0.834
       20.54100       28.21988       23.10241        0.417
       21.98873       28.00105       22.71761        0.417
       15.56081       22.68717       26.42338       -0.834
       16.30526       22.22986       26.81438        0.417
       15.85124       22.90505       25.53771        0.417
       10.61282       28.59273       24.36039       -0.834
       10.91574       28.29390       25.21781        0.417
       11.19754       28.16303       23.73614        0.417
        4.92023       17.60225       20.53296       -0.834
        5.37213       18.36426       20.17053        0.417
        5.23187       16.86578       20.00690        0.417
       24.66500       26.07484       23.55621       -0.834
       24.82744       26.99516       23.76323        0.417
       25.26064       25.59133       24.12863        0.417
       19.19126       26.65812       22.52337       -0.834
       19.77707       26.35439       21.82997        0.417
       18.34178       26.75733       22.09353        0.417
       19.91662       31.10144       16.70509       -0.834
       20.05247       30.34494       17.27560        0.417
       20.53495       30.97358       15.98568        0.417
       21.14529       18.05298        5.88396       -0.834
       21.44556       18.69834        6.52394        0.417
       21.71687       17.29715        6.01903        0.417
       20.82374       21.13769       22.78889       -0.834
       20.75744       21.34372       21.85648        0.417
       21.66960       21.49830       23.05480        0.417
       16.61187        7.43024        8.38020       -0.834
       15.74011        7.06480        8.22946        0.417
       17.12302        7.15312        7.61983        0.417
       18.23331       16.51554        2.76202       -0.834