%Nproc=32
%Mem=120Gb
%chk=temp.chk
#p cam-b3lyp/6-31+G(d,p) nosymm charge Freq 

Calculation for S0 with freq for abs spect

0  1
 C         15.67001       17.52951       16.07990
 C         17.29263       15.73382       15.50664
 C         17.69386       15.59301       16.75284
 C         17.02629       16.30618       17.76575
 N         16.02668       17.20797       17.42578
 H         17.67125       15.12497       14.63812
 H         18.45954       14.96849       17.03646
 O         17.17321       16.07324       18.97937
 O         14.84122       18.33227       15.79511
 N         16.36929       16.69331       15.18925
 H         15.95504       16.77448       14.32139
 H         15.50575       17.72944       18.15479
 O         18.70629       12.84502       15.53127
 H         18.38869       12.38560       16.30863
 H         17.95647       13.36043       15.23402
 O         17.23516       14.42482       13.39198
 H         17.45951       15.33864       13.56760
 H         17.92797       14.11550       12.80841
 O         20.12698       17.71255       19.77466
 H         20.35388       16.91479       19.29682
 H         20.27285       17.49109       20.69439
 O         11.93060       17.22066       14.32633
 H         10.99663       17.30108       14.51987
 H         12.24021       16.53518       14.91836
 O         18.18727       19.97223       14.07620
 H         18.36496       20.52812       13.31748
 H         17.25013       19.78494       14.02227
 O         17.73873       14.58465       20.08575
 H         17.47788       13.73998       20.45279
 H         18.69303       14.53704       20.02854
 O         17.14400       17.30464       20.74062
 H         17.29555       16.41721       20.41547
 H         17.39653       17.26858       21.66321
 O         17.52321       19.77975       19.72608
 H         16.66573       20.01399       19.37098
 H         17.49309       18.82740       19.81753
 O         13.39757       18.97398       17.97853
 H         12.50520       19.10215       17.65683
 H         13.47042       18.02924       18.11414
 O         15.17480       12.20320       13.38401
 H         15.42333       11.99974       12.48231
 H         15.68908       12.97958       13.60534
 O         18.49885       16.70777       13.75056
 H         18.52932       16.75912       12.79523
 H         18.57192       17.61653       14.04219
 O         12.62976       19.90804       14.80342
 H         12.32955       19.06146       14.47264
 H         13.46879       19.71789       15.22307
 O         12.57103       14.86594       16.15906
 H         13.05753       15.13414       16.93856
 H         11.65128       14.97361       16.40136
 O         13.68632       16.02176       18.72198
 H         14.35377       16.37197       19.31199
 H         13.03540       15.62785       19.30282
 O         20.46791       15.05570       18.53264
 H         21.12238       14.36290       18.62170
 H         20.38010       15.18288       17.58800
 O         13.68976       17.39486       12.29764
 H         12.94231       16.87527       12.59357
 H         14.12319       17.67302       13.10449
 O         20.25949       18.51976       15.79559
 H         19.67116       19.11153       15.32662
 H         21.01208       19.06378       16.02772
 O         20.13556       15.63726       15.87908
 H         20.27711       16.56830       16.05044
 H         19.53965       15.61897       15.13022
 O         14.68703       11.87369       17.59970
 H         15.31404       11.15630       17.50776
 H         15.20497       12.66530       17.45365
 O         15.27841       20.89629       18.84889
 H         15.25717       21.57225       18.17150
 H         14.59188       20.27977       18.59431
 
       14.16342       14.41257       31.59157       -0.834
       14.79335       13.94525       32.14023        0.417
       14.58639       14.46827       30.73470        0.417
       21.41223       11.87962       18.27831       -0.834
       20.72639       11.47950       17.74375        0.417
       22.08182       12.14709       17.64876        0.417
       26.39793       21.39788       16.39875       -0.834
       26.03408       21.49159       17.27913        0.417
       26.43068       20.45256       16.25199        0.417
       23.12491       19.57604       19.39242       -0.834
       22.91743       18.64429       19.32140        0.417
       23.07834       19.90148       18.49344        0.417
       27.51594       22.47791        7.02566       -0.834
       28.05521       21.69684        6.90172        0.417
       26.78048       22.17935        7.56062        0.417
       24.20577        7.66915       21.58410       -0.834
       24.97683        7.10879       21.49637        0.417
       23.63835        7.41211       20.85734        0.417
       21.18146        2.31680       19.73648       -0.834
       20.97749        1.40804       19.95738        0.417
       20.37323        2.79562       19.92012        0.417
       17.84390       22.85739       12.61529       -0.834
       18.42162       23.61978       12.65051        0.417
       17.30364       22.92913       13.40218        0.417
       13.35485        7.34392       24.05542       -0.834
       14.05255        7.99411       23.97348        0.417
       12.74719        7.72272       24.69063        0.417
       22.95884       28.45070       17.12500       -0.834
       22.82511       27.64445       17.62330        0.417
       22.09250       28.66568       16.77934        0.417
       26.10788       17.81716       11.16816       -0.834
       25.92713       18.72917       11.39577        0.417
       25.58609       17.30723       11.78779        0.417
       17.19153       15.01691        7.54266       -0.834
       17.81888       14.33237        7.31010        0.417
       16.61095       14.60337        8.18152        0.417
       21.41241       22.95412        9.14658       -0.834
       21.39674       22.98485        8.19000        0.417
       22.29498       22.65308        9.36259        0.417
        8.49447       22.92045       12.58367       -0.834
        7.86535       23.11753       11.88969        0.417
        8.61143       21.97146       12.53915        0.417
       22.48483       22.30122       27.67843       -0.834
       23.24289       21.73442       27.82093        0.417
       22.80523       22.98803       27.09375        0.417
       11.35225       27.06320       23.59709       -0.834
       11.04685       26.18025       23.80533        0.417
       12.02602       26.93293       22.92978        0.417
       15.27219       23.05723        3.49556       -0.834
       14.68982       23.80571        3.36570        0.417
       15.71605       23.23938        4.32383        0.417
       17.25710       23.85631       25.49990       -0.834
       16.57636       23.53576       24.90823        0.417
       17.00414       24.75976       25.68971        0.417
       18.23441       28.45001       10.69331       -0.834
       18.62263       28.14677       11.51402        0.417
       18.38001       27.73073       10.07877        0.417
       12.74098       22.47045        8.22612       -0.834
       12.58405       21.88420        7.48591        0.417
       12.08864       22.21390        8.87794        0.417
       20.12422        8.00819        6.41015       -0.834
       19.59085        8.68020        5.98570        0.417
       20.86269        8.48875        6.78424        0.417
       29.50551       23.33507       13.02611       -0.834
       30.29950       22.97301       13.41947        0.417
       28.82365       23.18586       13.68111        0.417
        3.38402       18.96577       19.45220       -0.834
        4.27417       18.99450       19.10144        0.417
        3.33732       18.13216       19.92032        0.417
       28.78631        8.06707       18.88721       -0.834
       28.14774        7.51119       18.44061        0.417
       29.56770        7.51979       18.96552        0.417
       16.61239       30.13818        9.40505       -0.834
       17.07997       30.65619        8.74986        0.417
       17.27342       29.54100        9.75526        0.417
       17.62036        5.86541       23.11748       -0.834
       17.64297        5.01335       22.68191        0.417
       17.05975        5.72964       23.88136        0.417
       19.92307       14.11429        6.78562       -0.834
       19.89114       13.17258        6.61714        0.417
       20.23480       14.18626        7.68777        0.417
       17.38287       23.29345        9.98044       -0.834
       16.60545       22.74382        9.88166        0.417
       17.72784       23.06818       10.84443        0.417
        9.32252        9.47628       24.74132       -0.834
        8.67058        8.77841       24.80598        0.417
        8.97001       10.07364       24.08167        0.417
       16.48789       27.95269       21.11842       -0.834
       16.00954       27.15861       21.35686        0.417
       16.20200       28.14612       20.22563        0.417
        7.18827       17.49521       27.03010       -0.834
        6.28490       17.38367       27.32629        0.417
        7.70933       16.98839       27.65288        0.417
       26.47728       19.36478       26.34049       -0.834
       25.82273       18.66881       26.28185        0.417
       26.08494       20.01473       26.92346        0.417
       29.83626       14.73175       23.04952       -0.834
       29.42469       14.28311       23.78814        0.417
       29.85982       15.65230       23.31079        0.417
        7.86146       22.67334       24.71396       -0.834
        8.04150       21.85500       25.17671        0.417
        7.34259       22.41010       23.95389        0.417
       29.52835       17.40713       23.18736       -0.834
       29.65684       17.36024       22.23998        0.417
       29.59834       18.33931       23.39319        0.417
       26.49936       10.84797       11.92222       -0.834
       26.00236       10.34022       11.28081        0.417
       26.00113       11.65885       12.02453        0.417
       11.58808       20.51571       26.26984       -0.834
       10.74253       20.08664       26.40086        0.417
       12.07497       20.33727       27.07441        0.417
       18.44478       20.31489       29.85561       -0.834
       17.67267       20.40293       29.29674        0.417
       18.99467       21.06364       29.62489        0.417
        6.70206        9.99732       12.96608       -0.834
        6.78655        9.05378       13.10327        0.417
        7.35061       10.38436       13.55414        0.417
       23.18981       16.35368        8.37037       -0.834
       23.62830       15.95747        7.61739        0.417
       22.34650       16.65034        8.02825        0.417
       21.63921        4.18272        9.15063       -0.834
       22.54728        4.41800        8.96015        0.417
       21.25285        4.98389        9.50430        0.417
       19.34120       15.75783       31.72228       -0.834
       18.68849       15.70782       32.42063        0.417
       18.90615       16.24350       31.02150        0.417
       21.60648       11.39626       26.93152       -0.834
       22.00468       10.66048       26.46645        0.417
       21.60263       11.12598       27.84976        0.417
       25.07579       19.21368       14.18341       -0.834
       24.79367       18.46201       13.66222        0.417
       25.27393       19.89235       13.53813        0.417
       16.61952        6.27602       11.57492       -0.834
       16.48203        5.81891       10.74524        0.417
       16.49608        7.20116       11.36254        0.417
       21.77115       30.59427       18.76262       -0.834
       21.82548       30.30322       19.67289        0.417
       22.11784       29.86057       18.25497        0.417
       24.66766       17.03261       25.23541       -0.834
       24.17404       16.47649       25.83816        0.417
       25.56281       16.69613       25.27694        0.417
       13.84549       19.41547        1.33155       -0.834
       13.61383       18.96840        2.14561        0.417
       14.03079       18.70825        0.71369        0.417
       13.60109       28.92760       12.87685       -0.834
       13.22654       28.20479       12.37336        0.417
       13.49044       29.69435       12.31465        0.417
       14.12519       10.78080       20.07912       -0.834
       14.04237       11.47620       20.73164        0.417
       14.24320       11.24314       19.24933        0.417
       12.56617        4.41706       21.37127       -0.834
       12.08330        4.86747       22.06425        0.417
       13.34445        4.95647       21.23150        0.417
       25.48785       24.69043       12.42549       -0.834
       25.89363       24.46097       11.58948        0.417
       24.57596       24.88081       12.20541        0.417
       20.68946       28.91322       15.78099       -0.834
       20.38589       28.97644       14.87541        0.417
       19.90164       28.70803       16.28444        0.417
        1.63321       17.89572       16.91171       -0.834
        1.58642       17.14869       17.50835        0.417
        2.54456       18.18447       16.95969        0.417
       18.62620        9.91599       12.27095       -0.834
       19.44097        9.53191       11.94711        0.417
       18.45911       10.65395       11.68467        0.417
        9.36603       26.03763       12.69816       -0.834
        8.60519       25.71226       13.17929        0.417
        9.99220       25.31403       12.72157        0.417
       28.48643       11.25446        9.96028       -0.834
       27.94725       11.09863       10.73567        0.417
       29.32646       10.84410       10.16568        0.417
       10.39271       18.36317       18.15602       -0.834
        9.75430       17.90456       18.70222        0.417
       10.32472       19.27925       18.42515        0.417
       23.49509       22.22306       18.17188       -0.834
       23.32495       22.57444       17.29792        0.417
       22.63694       22.20777       18.59564        0.417
        5.90153       20.31701        7.28132       -0.834
        6.58081       19.65419        7.40571        0.417
        5.69296       20.27470        6.34808        0.417
       11.02755       15.79895       19.79061       -0.834
       10.84581       15.16842       20.48749        0.417
       11.17443       16.62673       20.24826        0.417
       29.37901       16.63307       18.85371       -0.834
       29.22230       16.25110       17.99013        0.417
       28.50523       16.83081       19.19082        0.417
       12.57154       17.67617       25.25616       -0.834
       12.78345       17.23232       24.43498        0.417
       12.18291       16.99433       25.80415        0.417
       17.34308       22.54122       28.58307       -0.834
       18.27448       22.63456       28.78309        0.417
       17.32300       22.09638       27.73575        0.417
       25.03096        5.46229       13.78010       -0.834
       25.23268        6.38943       13.90639        0.417
       24.44869        5.24216       14.50724        0.417
       12.38066       26.99083       11.29692       -0.834
       11.90379       26.70228       10.51874        0.417
       12.94671       26.25167       11.51932        0.417
       19.73174       11.20621       20.50098       -0.834
       20.51652       11.53242       20.06060        0.417
       19.99844       10.36700       20.87626        0.417
       14.52506       20.77752        6.05400       -0.834
       13.86710       21.23621        5.53158        0.417
       15.31241       21.31611        5.97498        0.417
       10.55924        5.07615        8.35286       -0.834
       10.69144        4.97413        9.29538        0.417
       10.60913        6.02044        8.20435        0.417
        7.71577       21.78558       28.09591       -0.834
        7.83352       21.12802       27.41036        0.417
        6.93776       22.27472       27.82819        0.417
       14.66344        3.65433       16.46338       -0.834
       14.47446        2.80637       16.06154        0.417
       14.14679        4.28064       15.95638        0.417
       10.17593       12.67566       18.01292       -0.834
        9.98230       12.87794       18.92825        0.417
        9.82579       13.41998       17.52340        0.417
       28.65410       20.48283       20.05029       -0.834
       28.85355       20.35768       19.12250        0.417
       27.87492       21.03878       20.05540        0.417
       23.12977       10.02855       22.45435       -0.834
       23.26380       10.71410       23.10880        0.417
       23.86014        9.42420       22.58684        0.417
       21.11224        9.51599       11.59996       -0.834
       21.64957        9.16789       10.88838        0.417
       21.68945       10.12483       12.06080        0.417
       20.37930       27.71216       12.85541       -0.834
       21.28064       27.55474       13.13655        0.417
       20.43660       28.47721       12.28300        0.417
       16.99294       27.15932       13.43702       -0.834
       16.98778       26.30276       13.86422        0.417
       16.68673       26.98544       12.54695        0.417
       24.20245       10.73114       16.57263       -0.834
       23.76243       10.16711       17.20862        0.417
       25.07198       10.34433       16.47000        0.417
        7.09983       25.16397       14.14864       -0.834
        6.67848       24.97994       14.98818        0.417
        7.10035       24.32325       13.69101        0.417
       11.93847       21.59730       11.13052       -0.834
       11.66932       21.36025       12.01799        0.417
       12.43826       20.84173       10.82143        0.417
        6.53609       13.51198       22.20051       -0.834
        6.51874       14.37915       21.79560        0.417
        6.79176       13.67604       23.10822        0.417
       11.45843       19.08073       20.86138       -0.834
       11.41621       19.83754       20.27685        0.417
       12.33481       19.12172       21.24414        0.417
       23.76088       20.44476        7.21542       -0.834
       23.92389       19.71059        7.80758        0.417
       23.89642       21.22334        7.75549        0.417
       16.72387        2.42975       19.44842       -0.834
       16.96596        1.63647       19.92625        0.417
       15.76695        2.41603       19.42971        0.417
       21.24848       20.09931       26.95276       -0.834
       21.56516       20.96620       27.20664        0.417
       21.61461       19.95617       26.08002        0.417
       15.44882       23.03790       14.27543       -0.834
       16.15348       23.63595       14.52446        0.417
       14.69727       23.60758       14.11149        0.417
        7.64776       12.16942        7.39214       -0.834
        7.47390       13.08522        7.60966        0.417
        8.25399       11.87248        8.07077        0.417
       13.27549       11.49056       28.68066       -0.834
       12.32077       11.50576       28.61346        0.417
       13.51917       12.40185       28.84311        0.417
        7.53832       11.46659       10.77994       -0.834
        6.76906       11.94888       10.47688        0.417
        7.18858       10.81298       11.38551        0.417
        6.21170        9.63756        8.85657       -0.834
        6.12927        9.52334        7.90979        0.417
        6.60793       10.50270        8.96032        0.417
        9.96660        6.26683       16.94286       -0.834
       10.45827        7.07114       17.10887        0.417
        9.95299        5.81535       17.78679        0.417
       20.60320       25.46318       10.10731       -0.834
       20.65939       24.56835        9.77213        0.417
       21.20258       25.96459        9.55454        0.417
       16.26596       14.56062       10.40865       -0.834
       16.23374       15.49445       10.20093        0.417
       16.58001       14.52646       11.31222        0.417
        6.95703       12.19124       18.01892       -0.834
        6.58562       12.54204       17.20946        0.417
        6.27215       11.62234       18.37040        0.417
       13.13608       14.62700       28.19286       -0.834
       14.07258       14.81564       28.13253        0.417
       12.75630       15.41737       28.57667        0.417
        8.16094        7.41196        8.33117       -0.834
        8.16530        6.47341        8.51911        0.417
        7.52878        7.77768        8.94993        0.417
       18.89916       27.37070       25.19281       -0.834
       19.02116       27.60499       24.27278        0.417
       18.01472       27.00681       25.23255        0.417
       11.04207        5.24170       23.46222       -0.834
       11.79724        5.66630       23.86924        0.417
       10.28518        5.60981       23.91814        0.417
        9.08840        7.36039       14.74688       -0.834
        8.23515        7.10953       14.39294        0.417
        9.10122        6.98833       15.62871        0.417
        7.98216       25.74112       22.74366       -0.834
        8.26147       26.47106       22.19102        0.417
        7.08118       25.95480       22.98618        0.417
        9.30643       29.94957       18.71767       -0.834
        9.27088       29.25468       18.06032        0.417
        8.41190       30.28784       18.75792        0.417
       16.09631        9.04550       11.23145       -0.834
       16.91599        9.46708       11.48958        0.417
       15.65075        9.69787       10.69096        0.417
       19.29027        8.34098       27.93359       -0.834
       20.01012        8.94591       27.75442        0.417
       18.98515        8.58328       28.80790        0.417
        9.63564       15.75321        9.05356       -0.834
       10.13240       16.55744        8.90297        0.417
        9.75700       15.56695        9.98458        0.417
       14.90400       26.02788        6.30101       -0.834
       15.22636       26.68151        6.92156        0.417
       14.98450       26.44916        5.44528        0.417
       14.34861       10.70735       23.57014       -0.834
       15.21375       11.08481       23.41113        0.417
       14.32482       10.55098       24.51419        0.417
       23.15086       13.95234        4.96898       -0.834
       23.56516       14.64538        5.48306        0.417
       23.87335       13.37921        4.71253        0.417
       11.62146        3.80689       16.97958       -0.834
       11.24089        4.03931       17.82655        0.417
       11.93452        4.63739       16.62112        0.417
       27.02395       17.52812        7.53116       -0.834
       26.42134       16.99272        8.04735        0.417
       26.52627       17.76191        6.74765        0.417
       11.68138       12.80810        4.48649       -0.834
       11.96358       12.01876        4.94858        0.417
       11.43557       13.41829        5.18182        0.417
        2.62656       16.93668       21.42566       -0.834
        2.36877       16.17855       21.95009        0.417
        1.81536       17.42925       21.30094        0.417
        5.16575       20.88998       25.10286       -0.834
        5.83446       21.56893       25.01298        0.417
        4.35041       21.32068       24.84605        0.417
       10.21065       23.15934       28.54577       -0.834
       10.75033       22.38203       28.68990        0.417
        9.35864       22.81392       28.27935        0.417
        8.15543       16.98714       18.91827       -0.834
        7.32810       17.20858       18.49079        0.417
        8.08550       16.05117       19.10616        0.417
        3.47745       19.53156       12.10064       -0.834
        2.86009       18.80755       12.20522        0.417
        3.50399       19.68990       11.15700        0.417
       16.51052       12.34166       24.39085       -0.834
       16.14022       13.21273       24.53352        0.417
       17.01672       12.16333       25.18343        0.417
        8.46437        6.06820       21.15096       -0.834
        9.18925        6.67556       21.00298        0.417
        8.41501        5.98083       22.10288        0.417
        4.07548       11.25515       12.87303       -0.834
        4.19351       12.19906       12.76650        0.417
        4.95610       10.89134       12.78150        0.417
       23.15748       27.45395       13.30286       -0.834
       23.98711       27.27905       12.85861        0.417
       23.27195       28.32075       13.69246        0.417
       20.36919        6.73419       17.83008       -0.834
       20.17394        6.00212       17.24512        0.417
       19.71471        7.39748       17.61114        0.417
       14.99046       20.80089       12.87445       -0.834
       15.28585       21.46054       13.50201        0.417
       14.05057       20.71951       13.03636        0.417
       16.51537        9.04226        8.59440       -0.834
       17.08496        8.35398        8.25079        0.417
       15.81424        8.57107        9.04454        0.417
       20.43428       30.30634       11.82708       -0.834
       20.23464       29.97793       10.95043        0.417
       19.70518       30.89012       12.03647        0.417
       14.76706       17.06593       28.48562       -0.834
       13.83408       17.02262       28.69513        0.417
       15.00567       17.97985       28.64069        0.417
        5.58172       13.38406        9.65109       -0.834
        6.19409       13.89154        9.11846        0.417
        5.06115       12.89265        9.01566        0.417
       12.25044       21.75984        4.93160       -0.834
       12.04468       22.68096        5.09104        0.417
       12.31105       21.68889        3.97896        0.417
       10.97025       20.14960        7.01451       -0.834
       10.10751       20.55439        7.10429        0.417
       11.42106       20.68732        6.36347        0.417
       20.94049        3.65824       12.91965       -0.834
       20.39793        3.40046       13.66490        0.417
       20.59807        4.51285       12.65771        0.417
       19.96581       12.64907       31.51631       -0.834
       19.62686       13.50264       31.78605        0.417
       19.74512       12.58598       30.58704        0.417
       23.61196        3.81160       18.81041       -0.834
       22.71626        3.63567       19.09850        0.417
       24.11593        3.87943       19.62138        0.417
       26.71140       14.69648       12.39809       -0.834
       27.18684       14.24374       13.09466        0.417
       27.27025       14.60367       11.62654        0.417
       29.36157       19.48696       17.55076       -0.834
       28.71458       18.80560       17.36800        0.417
       30.16758       19.16757       17.14509        0.417
       20.84114       22.44896       18.43117       -0.834
       20.23757       23.16529       18.23416        0.417
       20.41501       21.96351       19.13757        0.417
       24.66624       16.49183       13.39521       -0.834
       23.89797       16.20968       13.89158        0.417
       25.10863       15.67786       13.15445        0.417
       12.93669       21.68336       24.19100       -0.834
       12.28867       22.03015       23.57778        0.417
       12.42490       21.41222       24.95309        0.417
       20.54894        9.76284       16.42121       -0.834
       19.82972        9.13133       16.40891        0.417
       20.28721       10.43690       15.79401        0.417
        6.05736       25.00660       24.98084       -0.834
        6.87209       24.50857       24.91451        0.417
        6.33755       25.92105       25.01961        0.417
        6.05783       23.62484       16.08969       -0.834
        5.70139       24.31205       16.65264        0.417
        5.47270       22.87891       16.22173        0.417
        2.48320       16.90421       12.33885       -0.834
        2.73861       16.04934       11.99217        0.417
        2.91655       16.95693       13.19071        0.417
       17.82934        9.03283       22.61116       -0.834
       18.03706        9.57912       21.85310        0.417
       17.89156        8.13527       22.28443        0.417
        9.68735        7.05185       11.47606       -0.834
        8.74185        7.09758       11.33403        0.417
        9.86253        6.12322       11.62830        0.417
       10.89273       14.35315       22.45979       -0.834
       10.32573       14.77455       23.10567        0.417
       10.50144       13.49026       22.32362        0.417
       21.36597        4.73709       21.31287       -0.834
       21.94418        3.98633       21.44799        0.417
       20.56039        4.35916       20.96013        0.417
       15.35471        6.35462       13.91192       -0.834
       15.56342        7.25105       14.17478        0.417
       15.55082        6.32732       12.97543        0.417
       22.07574        6.81080       19.91367       -0.834
       22.14774        5.97030       20.36600        0.417
       21.56110        6.61823       19.12990        0.417
       22.71018        8.86702       26.08597       -0.834
       22.88634        8.06843       26.58341        0.417
       21.84892        8.72094       25.69466        0.417
        7.41557       24.02391       20.30489       -0.834
        8.33993       24.21303       20.14355        0.417
        7.31507       24.10935       21.25296        0.417
       15.64132       17.03788       10.12857       -0.834
       14.87103       16.85616       10.66696        0.417
       15.75459       17.98673       10.18422        0.417
        8.95434       23.63658        8.49320       -0.834