%Nproc=32
%Mem=120Gb
%chk=temp.chk
#p cam-b3lyp/6-31+G(d,p) nosymm charge Freq 

Calculation for S0 with freq for abs spect

0  1
 C         15.67001       17.52951       16.07990
 C         17.29263       15.73382       15.50664
 C         17.69386       15.59301       16.75284
 C         17.02629       16.30618       17.76575
 N         16.02668       17.20797       17.42578
 H         17.67125       15.12497       14.63812
 H         18.45954       14.96849       17.03646
 O         17.17321       16.07324       18.97937
 O         14.84122       18.33227       15.79511
 N         16.36929       16.69331       15.18925
 H         15.95504       16.77448       14.32139
 H         15.50575       17.72944       18.15479
 O         12.76272       18.39104       16.82122
 H         12.58714       19.32328       16.69346
 H         12.31871       18.17332       17.64078
 O         14.99070       18.52638       14.03639
 H         15.34721       19.30802       14.45848
 H         15.10386       18.68679       13.09953
 O         19.24606       18.57044       14.19344
 H         19.29015       18.32196       13.27011
 H         19.87712       17.99595       14.62697
 O         14.59698       20.19298       18.83523
 H         15.29149       20.19899       18.17656
 H         14.77696       20.95865       19.38074
 O         18.94488       14.65975       12.76387
 H         18.92088       15.26882       12.02584
 H         19.82298       14.76197       13.13092
 O         17.22973       20.24067       14.65012
 H         17.91577       19.60234       14.45485
 H         16.94367       20.02182       15.53697
 O         14.22898       17.72762       19.68474
 H         14.33348       18.21424       20.50237
 H         14.25496       18.39767       19.00167
 O         12.75624       15.60363       20.30797
 H         13.23658       16.27238       19.81983
 H         12.91685       15.81590       21.22742
 O         16.10199       13.29801       20.56460
 H         16.27836       12.67341       21.26816
 H         16.94543       13.41013       20.12618
 O         15.99432       16.04270       20.73631
 H         15.83878       15.10598       20.61552
 H         15.26382       16.46723       20.28644
 O         21.28306       16.77161       15.05225
 H         21.95754       17.07810       14.44614
 H         21.38571       15.82001       15.06429
 O         17.67955       12.59164       15.67594
 H         18.46685       12.54988       15.13312
 H         17.77291       11.86375       16.29052
 O         18.19173       21.53353       18.18321
 H         18.19534       20.57637       18.19145
 H         18.55411       21.76753       17.32872
 O         15.55069       15.51180       12.50220
 H         14.83705       16.01990       12.11648
 H         15.64190       15.86085       13.38881
 O         12.42843       17.39346       14.16529
 H         12.53594       16.87170       14.96055
 H         13.22379       17.92384       14.11689
 O         18.88226       13.25260       19.44224
 H         19.05523       12.52056       20.03422
 H         19.41592       13.06756       18.66945
 O         18.79822       15.76483       20.55723
 H         18.84071       14.87828       20.19883
 H         17.93313       16.08554       20.30230
 O         12.75669       13.45189       16.88795
 H         13.28744       13.92439       16.24663
 H         13.29843       13.42781       17.67673
 
       14.96686       19.43516       11.43498       -0.834
       14.38207       20.10468       11.08003        0.417
       15.09903       18.82350       10.71066        0.417
       26.13592       10.80560        8.50240       -0.834
       25.93539       11.39616        9.22852        0.417
       26.92676       11.17183        8.10658        0.417
       23.94903       28.52389       17.48731       -0.834
       23.38270       27.86968       17.07802        0.417
       23.57100       29.36428       17.22835        0.417
       24.48336       16.81695        8.32493       -0.834
       25.12722       16.63325        7.64087        0.417
       24.95460       16.66713        9.14451        0.417
       28.56236       18.68744       18.34809       -0.834
       29.11874       19.39249       18.01705        0.417
       28.73576       18.66668       19.28923        0.417
       24.14802        9.84228       17.42347       -0.834
       23.81154       10.63914       17.01356        0.417
       24.54260       10.14192       18.24247        0.417
       18.83670       20.97010        5.97570       -0.834
       19.52150       20.99936        6.64385        0.417
       19.20397       20.42567        5.27931        0.417
       20.65763       26.61461        8.81829       -0.834
       20.43323       27.40792        8.33193        0.417
       19.89232       26.04819        8.71983        0.417
        9.25890        7.51529       25.45686       -0.834
        8.56281        7.64134       24.81204        0.417
        8.97908        6.75492       25.96654        0.417
       12.08606       22.19462       28.83444       -0.834
       11.68313       21.33048       28.91893        0.417
       12.17143       22.50866       29.73462        0.417
       13.37109        7.63040        7.92126       -0.834
       13.29644        7.73553        8.86974        0.417
       14.31251        7.65696        7.75022        0.417
       18.20810       29.07977       25.22053       -0.834
       17.74647       29.65953       24.61472        0.417
       17.57888       28.38494       25.41423        0.417
        5.71397       19.71171       15.79764       -0.834
        5.74543       18.99482       16.43113        0.417
        5.79737       19.28309       14.94584        0.417
       27.86661       12.57134       26.45242       -0.834
       28.34568       13.30979       26.82847        0.417
       27.51954       12.90643       25.62569        0.417
       19.01143       23.42695       10.27567       -0.834
       18.63237       23.64210        9.42347        0.417
       18.33464       22.91335       10.71659        0.417
       21.02970       13.54788       27.24692       -0.834
       20.67830       13.68939       28.12597        0.417
       21.86988       13.11266       27.39152        0.417
       12.47503        6.95600       25.55462       -0.834
       12.08070        6.60415       26.35270        0.417
       12.13287        7.84768       25.49084        0.417
       23.41246       17.04123       13.16636       -0.834
       24.14492       17.64551       13.28713        0.417
       23.18158       17.12583       12.24128        0.417
        9.99352        8.24985       17.30359       -0.834
       10.51046        8.22393       18.10878        0.417
        9.24216        7.68444       17.48248        0.417
       15.76598       29.44803       20.53624       -0.834
       15.37356       28.89526       19.86045        0.417
       15.51878       29.03041       21.36130        0.417
       22.96737       10.03165       10.16002       -0.834
       23.20427       10.94273        9.98666        0.417
       22.90613        9.97690       11.11369        0.417
       19.03106        6.15351       19.50978       -0.834
       19.89446        6.06735       19.91396        0.417
       19.06904        5.58659       18.73946        0.417
       19.22727       22.65970       22.36557       -0.834
       19.47727       23.30489       23.02697        0.417
       19.90780       21.98845       22.41582        0.417
       15.80453        3.81726       24.45432       -0.834
       15.56208        4.72037       24.65888        0.417
       16.06389        3.84116       23.53324        0.417
       24.57834       22.23257       28.18938       -0.834
       23.74625       21.96658       27.79810        0.417
       24.36240       23.00653       28.70956        0.417
       10.23247        5.68070       15.84253       -0.834
        9.52669        5.73010       16.48725        0.417
       10.89520        6.29150       16.16492        0.417
       15.15569       24.96663       12.27649       -0.834
       15.78407       24.25411       12.39346        0.417
       14.59895       24.67924       11.55284        0.417
       28.83787       11.30374       20.43142       -0.834
       29.71990       11.57211       20.17406        0.417
       28.74135       11.62481       21.32799        0.417
       12.62819       27.72458        9.72768       -0.834
       12.41777       27.84360       10.65385        0.417
       11.84657       27.31716        9.35444        0.417
       11.50408       21.50476        4.35879       -0.834
       11.67212       21.85034        3.48211        0.417
       12.23803       20.91427        4.52873        0.417
       12.30227       29.49997       20.60773       -0.834
       11.95632       29.34300       21.48631        0.417
       12.08209       30.41294       20.42269        0.417
       20.00020       19.72807       26.56945       -0.834
       20.26022       18.83257       26.78556        0.417
       19.46476       19.63885       25.78105        0.417
       21.91929       14.00911       24.85345       -0.834
       22.44669       13.21667       24.75286        0.417
       21.60392       13.97447       25.75654        0.417
       11.13197        9.23856       25.36511       -0.834
       10.87573        9.84765       24.67260        0.417
       10.46254        8.55474       25.34308        0.417
       27.78071       26.54886       12.06646       -0.834
       27.12677       25.91393       11.77413        0.417
       27.37003       27.40101       11.92014        0.417
       17.39385       21.43756       20.70649       -0.834
       17.95092       22.11166       21.09572        0.417
       17.51750       21.53950       19.76280        0.417
       10.00435       15.48604       17.00342       -0.834
       10.75917       14.89856       16.96685        0.417
       10.16741       16.03901       17.76753        0.417
       13.37513       18.07268        8.80578       -0.834
       12.62273       18.26776        9.36441        0.417
       13.40907       18.80122        8.18586        0.417
       31.20935       16.14279       21.22918       -0.834
       31.12438       16.29305       22.17069        0.417
       30.61820       16.78108       20.82998        0.417
       23.36378       11.43117       25.21309       -0.834
       22.47332       11.14617       25.41825        0.417
       23.82830       10.62472       24.98931        0.417
       21.59675        9.46426       18.16897       -0.834
       22.44485        9.50791       17.72732        0.417
       21.79501        9.64544       19.08772        0.417
       16.23635       22.14684        9.49217       -0.834
       16.83792       21.41099        9.37870        0.417
       16.08966       22.19338       10.43691        0.417
       31.15167       12.19207       19.23113       -0.834
       30.84206       13.03231       18.89296        0.417
       31.41874       11.70368       18.45243        0.417
        3.61276       22.45373       22.39664       -0.834
        3.88095       21.90535       21.65935        0.417
        3.31948       21.83273       23.06341        0.417
       14.98090        6.61587       14.22509       -0.834
       15.86689        6.96781       14.31101        0.417
       15.10573        5.73531       13.87117        0.417
       22.36754       12.93012        6.58367       -0.834
       22.13425       12.68171        7.47812        0.417
       21.91117       12.29523        6.03152        0.417
       17.67835       15.91064       10.38996       -0.834
       17.03316       15.59577       11.02307        0.417
       17.25711       16.66124        9.97116        0.417
       16.37073       26.84874       25.80372       -0.834
       15.94324       26.45888       26.56626        0.417
       16.06125       26.32788       25.06266        0.417
       14.09701        8.16863       10.72448       -0.834
       14.99677        7.88497       10.88636        0.417
       13.61640        7.90100       11.50782        0.417
       21.68332       10.76617        5.21495       -0.834
       22.07571        9.91438        5.40657        0.417
       20.74737       10.58523        5.12840        0.417
       26.64148       17.96862       21.75114       -0.834
       26.71512       17.67483       22.65916        0.417
       27.24807       18.70634       21.68765        0.417
       12.86970        7.90709       15.40676       -0.834
       12.85214        8.81722       15.11082        0.417
       13.73448        7.58763       15.14921        0.417
        7.10033       15.96665       10.10247       -0.834
        7.71124       15.32409       10.46321        0.417
        6.69914       15.52313        9.35509        0.417
       12.44625       27.19784       12.41697       -0.834
       13.15622       27.47276       12.99714        0.417
       11.89358       26.63824       12.96251        0.417
       22.69112       21.60972        6.31611       -0.834
       23.58547       21.65656        6.65402        0.417
       22.78833       21.69280        5.36749        0.417
       11.47407       26.51194        7.25274       -0.834
       12.36078       26.81441        7.05657        0.417
       11.48633       25.57870        7.04026        0.417
       25.58333       11.33186       19.17236       -0.834
       26.18895       10.87875       19.75901        0.417
       26.07929       12.08443       18.85004        0.417
       11.75186        5.14840       13.64670       -0.834
       11.28860        5.19556       14.48300        0.417
       11.19288        4.60312       13.09313        0.417
       16.81326       22.46325        4.59103       -0.834
       17.60508       22.30507        5.10506        0.417
       16.42856       23.24937        4.97866        0.417
       25.62688       21.83735        7.39362       -0.834
       26.50000       22.20879        7.51978        0.417
       25.66279       20.98623        7.83013        0.417
        6.06482       26.89617       18.10430       -0.834
        5.32083       27.25689       17.62201        0.417
        5.69458       26.61400       18.94068        0.417
       16.82551       23.75343       19.22798       -0.834
       17.52975       23.24327       18.82796        0.417
       16.22107       23.93383       18.50802        0.417
       21.30550       15.05321       19.80020       -0.834
       20.51038       15.58513       19.83318        0.417
       22.01688       15.67527       19.95254        0.417
       17.52963        5.66481       16.96537       -0.834
       17.05730        6.45169       16.69342        0.417
       17.88748        5.30690       16.15292        0.417
        8.78456       19.25589       28.56598       -0.834
        8.06693       19.41120       27.95189        0.417
        8.50588       19.68588       29.37448        0.417
       26.52105       21.64189       23.43492       -0.834
       25.94463       22.33867       23.12110        0.417
       26.50815       21.73075       24.38790        0.417
        7.96532       13.86255        6.20194       -0.834
        7.80651       14.80576        6.16502        0.417
        7.10501       13.46851        6.05761        0.417
       12.09429        7.82616       12.62777       -0.834
       12.29998        7.08481       13.19728        0.417
       11.61519        8.43496       13.18995        0.417
       14.96622       21.18118       25.68420       -0.834
       14.81610       20.54148       26.38024        0.417
       15.43354       20.69302       25.00631        0.417
       12.29301        8.48806       28.42957       -0.834
       12.35455        7.53353       28.39328        0.417
       11.40014        8.65978       28.72879        0.417
       28.12330       11.80340       22.88699       -0.834
       27.75025       12.64274       23.15637        0.417
       27.94931       11.21627       23.62267        0.417
       27.37379       14.80667       13.00277       -0.834
       27.97610       14.34709       12.41775        0.417
       26.50398       14.51730       12.72724        0.417
        7.64137       17.85286       20.30898       -0.834
        7.68052       18.78682       20.51494        0.417
        8.55628       17.59159       20.20451        0.417
       21.83954       17.87041       29.34262       -0.834
       21.86701       18.82719       29.34954        0.417
       21.70214       17.64091       28.42355        0.417
       17.21803       11.50410       22.80095       -0.834
       16.91132       10.61216       22.63786        0.417
       16.90864       11.70660       23.68385        0.417
       12.11945       23.34391       21.86429       -0.834
       12.63161       23.98277       21.36851        0.417
       12.63428       23.18570       22.65558        0.417
        7.80478       10.68518       11.02552       -0.834
        8.74715       10.55124       10.92442        0.417
        7.71119       11.09141       11.88718        0.417
        6.52401       11.31907       16.08641       -0.834
        6.18453       11.70511       15.27896        0.417
        7.15459       10.66202       15.79165        0.417
        6.97925       14.75341       15.27101       -0.834
        7.78005       14.27262       15.06174        0.417
        7.03911       14.92157       16.21142        0.417
        2.23869       15.88911       11.32964       -0.834
        3.06582       15.71294       11.77803        0.417
        2.07961       16.82141       11.47710        0.417
       11.28219       13.26123       23.96798       -0.834
       12.21959       13.39339       23.82641        0.417
       10.87637       14.07156       23.65992        0.417
       11.63750       13.75333       13.55401       -0.834
       11.83436       13.54610       12.64048        0.417
       10.68135       13.77011       13.59563        0.417
       26.07738       25.31940       19.29774       -0.834
       26.94470       25.65573       19.52329        0.417
       25.52711       25.55437       20.04488        0.417
       13.01170       16.36660       11.72583       -0.834
       12.68185       17.06022       11.15459        0.417
       12.79628       16.66163       12.61058        0.417
       14.37842       22.69207        7.43077       -0.834
       14.59940       23.34612        6.76777        0.417
       15.20038       22.53380        7.89507        0.417
       23.96602       17.65853       16.56355       -0.834
       24.01092       18.53728       16.94039        0.417
       23.10332       17.61820       16.15080        0.417
       25.31832       17.97326       27.27425       -0.834
       25.36482       18.84482       26.88124        0.417
       24.70682       17.49127       26.71749        0.417
       31.07413       19.66636       11.83474       -0.834
       30.97058       20.61663       11.88473        0.417
       30.75672       19.34562       12.67890        0.417
       10.22532       16.41589       19.86507       -0.834
       10.52099       17.24867       19.49725        0.417
       11.03249       15.94475       20.07177        0.417
       14.93592       21.66355       14.05979       -0.834
       14.62019       21.97680       13.21219        0.417
       15.82246       21.34828       13.88405        0.417
        6.11769       17.85635       18.11233       -0.834
        6.49054       18.08973       18.96247        0.417
        6.75871       17.26058       17.72453        0.417
       28.96489        9.21539       18.17514       -0.834
       28.65468        9.50423       19.03338        0.417
       29.20788       10.02351       17.72334        0.417
       15.29783       11.32549       17.82483       -0.834
       14.86548       11.93920       18.41868        0.417
       14.68503       11.22423       17.09651        0.417
        5.14260        7.03832       15.51398       -0.834
        4.99626        6.09975       15.63188        0.417
        4.58368        7.45279       16.17128        0.417
       29.38905       12.25015       12.72374       -0.834
       29.11269       11.72791       13.47681        0.417
       29.93628       12.94045       13.09823        0.417
       26.44814       24.60489       16.42018       -0.834
       26.27645       25.40303       15.92044        0.417
       26.61348       24.91099       17.31192        0.417
       22.63502       21.30184        3.34224       -0.834
       22.88943       21.02225        2.46285        0.417
       21.72048       21.03160        3.42480        0.417
       22.74392       15.46771        4.29587       -0.834
       23.41053       14.92926        4.72242        0.417
       22.13331       15.69412        4.99739        0.417
       15.65255       21.64383        2.37881       -0.834
       15.02340       20.98955        2.68264        0.417
       16.05212       21.98271        3.17989        0.417
       10.00759       15.29916       22.76346       -0.834
        9.29777       15.56990       23.34575        0.417
       10.17634       16.06714       22.21759        0.417
       18.34155       21.67221       28.62167       -0.834
       19.02453       22.20060       29.03467        0.417
       18.79640       20.88640       28.31862        0.417
       26.18864       16.74842       10.56455       -0.834
       26.39171       16.81653       11.49747        0.417
       26.94561       16.30109       10.18621        0.417
       23.19722       17.02631       20.40612       -0.834
       22.45309       17.21420       19.83411        0.417
       23.84546       17.69464       20.18396        0.417
       22.36358       16.70313       10.13032       -0.834
       22.99909       16.67198        9.41521        0.417
       21.67922       17.29481        9.81759        0.417
       18.05178       10.81565       17.69444       -0.834
       17.95540        9.94517       18.08073        0.417
       17.17399       11.19511       17.73585        0.417
       20.33107       18.20249        9.82003       -0.834
       20.65398       19.01467       10.21033        0.417
       19.95182       18.47238        8.98364        0.417
       14.22703       12.63011       13.79461       -0.834
       14.46300       12.73727       12.87316        0.417
       13.42597       13.14367       13.89849        0.417
       14.04214       11.13546       23.40447       -0.834
       14.05995       11.95160       23.90431        0.417
       14.22605       10.45401       24.05103        0.417
       13.65538       10.44132        9.29833       -0.834
       13.97619       10.01209        8.50519        0.417
       13.93736        9.86888       10.01180        0.417
        6.19685       12.46079       13.56366       -0.834
        5.84591       12.96750       12.83132        0.417
        6.99081       12.92939       13.82109        0.417
       17.61390       22.81090       25.62176       -0.834
       16.88829       22.47260       25.09709        0.417
       17.78356       22.12483       26.26732        0.417
       10.86632       10.08503       10.13666       -0.834
       10.78596        9.13164       10.10789        0.417
       11.77805       10.25626        9.90074        0.417
       19.03282       10.92916        5.06670       -0.834
       18.19877       11.06023        4.61568        0.417
       18.79891       10.47663        5.87709        0.417
        6.34517        7.50064       20.51106       -0.834
        5.93627        6.66905       20.27132        0.417
        6.28683        8.03407       19.71842        0.417
       23.80690       21.59097       24.97257       -0.834
       23.88540       21.00266       24.22159        0.417
       22.87350       21.58620       25.18463        0.417
       14.44670       12.58815        5.89609       -0.834
       14.30656       11.67226        5.65580        0.417
       15.27123       12.82429        5.47110        0.417
       17.22938       16.20998       27.21035       -0.834
       17.90068       16.40266       27.86493        0.417
       17.33462       16.89481       26.54992        0.417
       29.87142       18.66308       20.76283       -0.834
       29.27983       19.17598       21.31346        0.417
       30.73675       19.03850       20.92565        0.417
       22.47510       29.91388       20.24742       -0.834
       22.64033       29.41668       21.04850        0.417
       21.69212       29.51099       19.87211        0.417
       20.78009        3.85413       18.97050       -0.834
       20.89334        3.21155       19.67085        0.417
       21.66380        4.17866       18.79736        0.417
       22.99380       18.24955        3.70752       -0.834
       23.92493       18.32826        3.50006        0.417
       22.89389       17.35244        4.02602        0.417
       22.60317       26.70418       23.91177       -0.834
       22.05030       25.93112       23.79802        0.417
       23.45681       26.35346       24.16578        0.417
       22.53201       20.04841       16.05035       -0.834
       22.03505       20.37678       15.30106        0.417
       22.75954       20.83269       16.54972        0.417
       21.12671       13.82846       15.04581       -0.834
       21.53524       13.11997       14.54844        0.417
       21.06923       13.49180       15.94001        0.417
        9.99398       13.00384        7.82901       -0.834
        9.26466       13.38099        7.33700        0.417
        9.79296       13.19983        8.74411        0.417
       13.20119       20.23631        7.07754       -0.834
       13.69917       21.01375        7.33019        0.417
       13.44030       20.08483        6.16315        0.417
       16.38535        3.16058       21.45539       -0.834
       15.58777        2.63527       21.51935        0.417
       16.34532        3.55243       20.58299        0.417
       19.44164       27.23179       22.38734       -0.834
       19.32162       26.67902       23.15953        0.417
       18.80890       26.89703       21.75187        0.417
       11.36104       15.99880       30.50426       -0.834
       11.53982       15.15560       30.92054        0.417
       10.58548       15.84100       29.96589        0.417
        9.52763       21.67110       24.26799       -0.834
        9.37262       22.34573       23.60687        0.417
        9.50767       22.14228       25.10094        0.417
       14.23629        4.02519       13.44808       -0.834
       13.34223        4.35419       13.54102        0.417
       14.31853        3.81312       12.51830        0.417
       12.00538       12.04333       28.89293       -0.834
       11.47325       12.36967       28.16728        0.417
       11.37870       11.61634       29.47704        0.417
       10.43666       10.86651       23.06264       -0.834
       11.03664       11.49804       23.45942        0.417
        9.56691       11.24057       23.20349        0.417
       20.85040       10.27189       12.62776       -0.834
       21.55377       10.74697       13.07025        0.417
       20.07583       10.82069       12.75062        0.417
       17.19384        8.21922       15.06509       -0.834
       16.94279        9.13814       14.97138        0.417
       18.10104        8.24808       15.36904        0.417
       14.16091       27.88289       19.21151       -0.834
       13.59781       28.49922       19.67978        0.417
       13.77650       27.82347       18.33691        0.417
       11.71838       25.19983       26.98620       -0.834
       12.37418       24.50565       27.05163        0.417
       11.98320       25.70870       26.21994        0.417
        7.94442       20.57485       21.09164       -0.834
        7.38760       20.53580       21.86923        0.417
        7.93001       21.49610       20.83217        0.417
       20.35796       12.27725       29.65779       -0.834
       20.87451       11.70332       29.09210        0.417
       20.71909       12.13943       30.53347        0.417
       19.40308        1.71756       17.22730       -0.834
       19.11695        2.07233       16.38558        0.417
       19.76604        2.47029       17.69409        0.417
       24.21006        9.01890        7.79333       -0.834
       23.66504        8.86646        8.56531        0.417
       24.96782        9.50007        8.12577        0.417
       16.88630       13.27287        4.13300       -0.834
       17.50914       13.63273        4.76451        0.417
       17.03599       13.77795        3.33379        0.417
       17.72377       25.96528       20.42652       -0.834
       17.26513       25.26843       19.95718        0.417
       17.87074       26.64275       19.76648        0.417
       26.03545        6.22386       20.98562       -0.834
       26.05744        5.90737       21.88871        0.417
       25.60860        7.07880       21.04126        0.417
        1.74435       17.35946       17.78231       -0.834
        2.45634       17.52567       17.16450        0.417
        1.79945       16.42153       17.96529        0.417
       10.66775        6.19789       10.76146       -0.834
       10.00465        6.70020       10.28795        0.417
       11.11031        6.84381       11.31205        0.417
       21.68645       18.43466       18.42453       -0.834
       21.71990       19.25312       18.91974        0.417
       21.54282       18.70804       17.51852        0.417
       17.44111       21.89722       12.05957       -0.834
       17.66237       21.12407       11.54043        0.417
       17.42235       21.58219       12.96325        0.417
        7.33808       15.43482       17.94719       -0.834
        7.25698       15.32496       18.89460        0.417
        8.28165       15.46409       17.78889        0.417
        4.17346       18.08065       22.62299       -0.834
        4.74631       17.33257       22.45434        0.417
        3.77184       18.27130       21.77530        0.417