%Nproc=32
%Mem=120Gb
%chk=temp.chk
#p cam-b3lyp/6-31+G(d,p) nosymm charge Freq 

Calculation for S0 with freq for abs spect

0  1
 C         17.88352       16.91777       16.80837
 C         16.08924       15.82436       15.64405
 C         15.18228       16.46068       16.34401
 C         15.55180       17.25593       17.46290
 N         16.88950       17.52078       17.55115
 H         15.87095       15.12196       14.85629
 H         14.12555       16.39018       16.13353
 O         14.80097       17.76661       18.30345
 O         19.05795       17.14633       16.99366
 N         17.40637       16.03133       15.86073
 H         18.04325       15.54988       15.26206
 H         17.29206       18.06154       18.32721
 O         13.61488       13.64967       19.48564
 H         13.44904       13.42867       18.56918
 H         13.14007       12.98363       19.98282
 O         21.53466       16.42705       15.40454
 H         20.61397       16.32902       15.16174
 H         22.00861       16.37482       14.57456
 O         17.17996       19.11739       20.16865
 H         16.40116       19.53165       19.79706
 H         17.39246       19.64991       20.93514
 O         16.43253       16.56853       11.99412
 H         15.84453       15.86644       11.71563
 H         15.87428       17.34467       12.04096
 O         17.60005       13.03457       15.60507
 H         18.15698       13.11717       16.37917
 H         18.18457       13.21406       14.86863
 O         13.66441       12.72623       16.92262
 H         13.23422       11.87774       17.02858
 H         14.24337       12.60936       16.16937
 O         16.28784       13.88015       18.33369
 H         16.17200       14.59354       17.70608
 H         15.40853       13.71449       18.67370
 O         12.34693       18.14199       15.58977
 H         12.93726       18.33889       14.86247
 H         11.64254       17.62815       15.19477
 O         20.70014       15.80556       18.74846
 H         20.26175       14.98171       18.53558
 H         20.36874       16.42799       18.10117
 O         19.20758       14.99197       14.02318
 H         19.01917       15.36800       13.16333
 H         20.01765       14.49796       13.89679
 O         12.57617       16.10408       20.38699
 H         13.03587       15.26686       20.32410
 H         13.11303       16.71148       19.87799
 O         17.14358       20.88573       17.23570
 H         17.95795       20.75626       17.72179
 H         16.47852       21.01526       17.91183
 O         20.28476       20.47697       15.29712
 H         19.34871       20.28077       15.25764
 H         20.36785       21.10740       16.01259
 O         19.19650       13.44876       18.29039
 H         19.34607       12.50360       18.31322
 H         18.26594       13.54939       18.49081
 O         12.94687       19.79093       17.55209
 H         13.70574       19.29402       17.85774
 H         12.50781       19.20403       16.93646
 O         15.13903       12.47384       14.77253
 H         15.84545       12.66719       15.38883
 H         15.42844       11.68393       14.31588
 
       30.92142       19.38344       17.51101       -0.834
       30.51380       18.61646       17.10874        0.417
       31.55674       19.68571       16.86198        0.417
       13.35853       22.57908       21.46340       -0.834
       13.20659       21.70481       21.10451        0.417
       12.87257       22.58778       22.28802        0.417
       16.89556       27.78843        7.92255       -0.834
       17.52737       27.33117        7.36760        0.417
       16.54757       28.48524        7.36614        0.417
       28.98758       12.84798       11.44507       -0.834
       28.95656       12.73672       12.39527        0.417
       29.15531       11.96877       11.10584        0.417
       18.77655       12.58058       10.89935       -0.834
       17.85644       12.74613       10.69388        0.417
       19.05054       11.92271       10.26032        0.417
       28.94736       12.62987       23.47882       -0.834
       29.63675       13.15951       23.87940        0.417
       29.41256       11.90059       23.06898        0.417
       14.08282       25.10199       25.38944       -0.834
       14.56386       24.28182       25.27918        0.417
       14.03456       25.22635       26.33730        0.417
       13.51639        2.23551       12.77038       -0.834
       14.21309        1.59395       12.90913        0.417
       13.85493        3.04426       13.15450        0.417
       13.31656       14.87187       30.06192       -0.834
       12.38095       14.75667       30.22804        0.417
       13.73981       14.60543       30.87807        0.417
        5.62719       10.63751       18.95498       -0.834
        6.22122       11.38305       19.04182        0.417
        6.09315       10.02434       18.38653        0.417
       16.69270       24.06162       19.90812       -0.834
       16.86228       25.00354       19.89193        0.417
       17.50081       23.67811       20.24889        0.417
       30.55930       22.88860       16.76406       -0.834
       29.86776       23.34529       16.28506        0.417
       30.10376       22.19272       17.23784        0.417
       11.60161        9.95672       24.19944       -0.834
       11.11065        9.95076       23.37775        0.417
       11.07505       10.49572       24.78973        0.417
       12.11311       24.60723       10.26670       -0.834
       12.67767       23.84974       10.42068        0.417
       11.82426       24.87269       11.13981        0.417
       10.60615       13.31536       15.89783       -0.834
       10.46271       14.19290       16.25220        0.417
       11.22341       13.44522       15.17786        0.417
        8.27189       21.66902       13.01467       -0.834
        7.85743       22.32362       13.57678        0.417
        8.43499       20.92432       13.59351        0.417
       28.94464        9.56874       19.37661       -0.834
       29.03385        9.11936       20.21704        0.417
       28.12115        9.24077       19.01532        0.417
       28.15991       20.99230       14.16986       -0.834
       28.93434       21.29636       13.69653        0.417
       27.51540       20.81275       13.48532        0.417
       24.11592       28.53436       17.83775       -0.834
       24.48702       29.32217       17.44042        0.417
       24.85091       28.12828       18.29722        0.417
       18.58521        9.23193        5.75954       -0.834
       18.00469        8.50786        5.52513        0.417
       18.92375        8.99797        6.62377        0.417
        3.72289       12.60733       18.77926       -0.834
        4.26340       11.91163       19.15354        0.417
        3.25981       12.18769       18.05421        0.417
       26.04444       18.72706       22.67741       -0.834
       26.23757       18.67666       23.61358        0.417
       26.89540       18.87360       22.26435        0.417
       21.45148       18.73423       22.79770       -0.834
       20.93121       18.06881       22.34740        0.417
       22.09060       19.02114       22.14544        0.417
       10.70517        7.02642       24.60578       -0.834
       10.52842        7.95206       24.77369        0.417
       11.10844        7.01270       23.73779        0.417
       17.92304        9.95429       16.15153       -0.834
       17.13808        9.54323       15.78946        0.417
       18.23356       10.53330       15.45544        0.417
       17.83779        9.33268       24.63351       -0.834
       17.18655        9.63357       23.99980        0.417
       17.59945        9.77233       25.44968        0.417
       18.50151       27.02265        5.81770       -0.834
       18.43594       26.83961        4.88045        0.417
       18.99062       26.28073        6.17347        0.417
       16.16977       22.25760        4.94871       -0.834
       15.33943       22.03332        5.36879        0.417
       16.14779       23.21109        4.86749        0.417
       23.15045       29.31905       11.41968       -0.834
       23.92781       29.73053       11.79735        0.417
       23.49292       28.59553       10.89484        0.417
        6.63835        7.82590       14.93057       -0.834
        6.56331        7.79059       13.97697        0.417
        7.01356        6.97941       15.17328        0.417
       13.25124        9.12815       29.70981       -0.834
       14.08969        8.78666       30.02065        0.417
       13.40403        9.33716       28.78829        0.417
       20.57431        3.26619       11.18324       -0.834
       20.90069        3.83550       11.88009        0.417
       19.84939        2.78700       11.58460        0.417
       13.22619        9.01611        9.31080       -0.834
       12.86206        8.32271        8.76049        0.417
       13.25928        8.63400       10.18780        0.417
       20.28199        9.98518       23.45540       -0.834
       20.34431       10.93617       23.36615        0.417
       19.50459        9.84531       23.99607        0.417
        6.71190       21.35574       18.12319       -0.834
        5.78550       21.18714       18.29521        0.417
        7.02488       20.55985       17.69326        0.417
        4.56139       17.52881        7.86891       -0.834
        5.04092       17.16846        8.61485        0.417
        4.54127       16.81652        7.22980        0.417
       18.71517        4.53402       18.17809       -0.834
       19.04462        3.77882       18.66530        0.417
       18.84642        5.27616       18.76820        0.417
       23.16247       10.17928        6.74746       -0.834
       23.81705        9.48341        6.68809        0.417
       22.54011        9.98373        6.04699        0.417
       29.48037       12.51951       19.21832       -0.834
       30.29729       12.96780       18.99943        0.417
       29.67013       11.59208       19.07658        0.417
       21.69745        7.01111        9.92956       -0.834
       21.43756        6.44938       10.65973        0.417
       22.58753        7.28914       10.14566        0.417
       19.13187       21.95978        6.75299       -0.834
       20.06874       22.12196        6.64253        0.417
       18.79764       21.86653        5.86090        0.417
       15.72679        3.80136       18.71244       -0.834
       16.60395        4.08521       18.96982        0.417
       15.87306        3.20831       17.97546        0.417
        7.45547       17.95796       25.97954       -0.834
        7.11112       18.20480       26.83787        0.417
        8.25302       18.47824       25.88225        0.417
       17.67973       22.13840       12.58625       -0.834
       17.24454       22.83402       12.09335        0.417
       17.14296       22.02852       13.37114        0.417
       22.57568       17.63245        9.87967       -0.834
       23.18953       17.07655        9.39967        0.417
       22.94606       17.69442       10.76013        0.417
       26.21073       22.37522       20.90514       -0.834
       26.67493       21.59189       20.60993        0.417
       25.36345       22.33349       20.46174        0.417
       16.39937       21.10609       28.41449       -0.834
       16.48685       20.40698       29.06243        0.417
       17.25290       21.53936       28.41222        0.417
        8.76576       17.89349        9.30047       -0.834
        8.94224       17.97759        8.36345        0.417
        8.01115       17.30675        9.35084        0.417
       21.37522       25.51111       11.72839       -0.834
       20.54961       25.76850       12.13869        0.417
       21.21712       25.60841       10.78936        0.417
       15.87003       16.54363        1.32349       -0.834
       16.04306       17.09905        0.56335        0.417
       15.90105       17.14200        2.06996        0.417
       14.19988       23.52671       29.02297       -0.834
       14.72394       22.89322       28.53279        0.417
       14.84383       24.07875       29.46662        0.417
       15.00934        7.76943       17.97436       -0.834
       15.42081        8.08741       18.77798        0.417
       14.12850        8.14368       17.99143        0.417
       26.20086       15.45212       19.75986       -0.834
       26.85155       14.93953       20.23953        0.417
       25.46027       15.52367       20.36206        0.417
       11.92893       20.34363       20.20189       -0.834
       11.13590       20.85829       20.05201        0.417
       12.08296       19.89283       19.37165        0.417
       17.42399       23.57612        8.08860       -0.834
       18.02660       23.07442        7.53962        0.417
       16.90455       22.91285        8.54301        0.417
       10.47896       24.82334       14.95957       -0.834
        9.73617       25.19218       15.43753        0.417
       10.91097       24.25004       15.59276        0.417
        9.75932        9.39526       26.18060       -0.834
        8.99002        9.91548       26.41253        0.417
        9.78470        8.69873       26.83667        0.417
       18.62910       27.37333       17.24522       -0.834
       19.51545       27.57102       16.94268        0.417
       18.05940       27.69937       16.54853        0.417
       19.97801        9.23430       28.84910       -0.834
       20.36545        8.59660       28.24955        0.417
       19.37821        9.74305       28.30352        0.417
       19.30486        2.50866       19.74227       -0.834
       18.68103        1.91375       19.32616        0.417
       20.12300        2.01296       19.77647        0.417
       30.04683       16.94901       16.51366       -0.834
       30.91508       16.86355       16.11986        0.417
       29.55874       16.19418       16.18468        0.417
        7.73368       19.13882        7.19769       -0.834
        7.21271       19.64795        7.81866        0.417
        7.30074       19.27290        6.35459        0.417
       21.36604        4.52267       13.62908       -0.834
       20.92820        5.37376       13.64279        0.417
       21.52527        4.31983       14.55089        0.417
        9.52180       19.84660        3.96086       -0.834
        8.71897       19.44620        4.29458        0.417
        9.44578       20.77075        4.19841        0.417
       13.61071        6.54297       11.16552       -0.834
       13.30003        5.63759       11.16383        0.417
       14.27681        6.56683       11.85251        0.417
        8.54304       27.22820       18.77703       -0.834
        8.38528       26.52172       18.15074        0.417
        9.09546       26.83240       19.45113        0.417
       13.08846        6.21265       15.65244       -0.834
       14.00553        5.96133       15.76213        0.417
       12.70465        6.10608       16.52282        0.417
       23.86001       23.43535       19.83980       -0.834
       23.69639       22.67747       19.27848        0.417
       23.82505       24.18556       19.24634        0.417
       23.04016       14.84397        9.05994       -0.834
       23.94069       15.09740        9.26255        0.417
       22.72529       14.41869        9.85758        0.417
       11.83917       27.73925       21.99617       -0.834
       11.10443       28.35198       22.02702        0.417
       11.51350       26.99967       21.48313        0.417
        4.39912       23.50115       19.26313       -0.834
        5.18365       24.04001       19.36496        0.417
        3.67206       24.10385       19.41928        0.417
       10.97238       28.27510        7.58893       -0.834
       11.78846       27.81423        7.78344        0.417
       10.28456       27.68802        7.90274        0.417
       11.86691        3.06283       19.15367       -0.834
       11.42102        2.35195       18.69317        0.417
       11.35021        3.19519       19.94849        0.417
       20.13989        9.05895       10.92668       -0.834
       20.65837        8.25460       10.90595        0.417
       20.26850        9.44972       10.06240        0.417
        3.74880       16.90826       14.86961       -0.834
        4.40001       17.31950       14.30124        0.417
        4.13457       16.06455       15.10531        0.417
       10.96182       24.09899       27.32841       -0.834
       11.66596       24.74098       27.23749        0.417
       11.13851       23.66564       28.16341        0.417
       11.87610        2.94036       15.82754       -0.834
       12.65334        3.49211       15.91536        0.417
       12.20161        2.04740       15.94112        0.417
       18.08356       19.49629       25.20776       -0.834
       18.90229       19.26394       25.64586        0.417
       17.39865       19.21754       25.81556        0.417
       29.30983       16.24411       21.44554       -0.834
       29.24100       16.31910       20.49377        0.417
       28.75339       15.49781       21.66833        0.417
       27.91776       16.34677       24.82041       -0.834
       27.64950       17.25835       24.93566        0.417
       27.10614       15.88156       24.61771        0.417
       10.01468        6.90530       14.39660       -0.834
        9.23868        6.53812       14.81996        0.417
        9.78296        7.81710       14.22006        0.417
       27.91000       13.99806       21.30621       -0.834
       28.27495       13.39625       20.65746        0.417
       28.05980       13.56479       22.14649        0.417
       12.51609       11.40694        4.43748       -0.834
       12.18642       10.94857        5.21043        0.417
       12.90413       12.21101        4.78261        0.417
        7.51397       22.08729       23.39403       -0.834
        7.17824       21.44450       24.01881        0.417
        7.41523       21.66625       22.54010        0.417
       21.24970        9.96104       13.61002       -0.834
       21.94925       10.18887       14.22234        0.417
       21.40112       10.52542       12.85188        0.417
       15.21906       15.17780        8.58609       -0.834
       15.96159       15.74907        8.38979        0.417
       14.51814       15.49012        8.01389        0.417
       24.93471        7.92252       24.89930       -0.834
       24.25963        8.59921       24.84842        0.417
       24.87492        7.59077       25.79518        0.417
       14.80943       20.10000       23.15223       -0.834
       15.52184       20.69270       22.91264        0.417
       15.20323       19.22797       23.12478        0.417
       25.99957        9.22110       19.37652       -0.834
       25.92180        9.64934       18.52400        0.417
       25.12203        8.88388       19.55663        0.417
       21.48317       20.37955       25.04437       -0.834
       21.00959       19.96936       25.76805        0.417
       21.53496       19.69780       24.37445        0.417
       15.42599        9.19836       15.53073       -0.834
       15.25917        8.88508       16.41970        0.417
       14.63910        8.95994       15.04064        0.417
       17.31556       11.20277        4.49744       -0.834
       17.78293       11.51503        3.72265        0.417
       17.96667       10.69561        4.98229        0.417
       14.26703       24.93863       20.47423       -0.834
       13.73888       24.16295       20.66295        0.417
       15.14694       24.59699       20.31527        0.417
        7.06402       16.68362       15.29435       -0.834
        7.10709       16.25170       14.44123        0.417
        7.25140       15.98840       15.92506        0.417
       18.42745       16.76439       31.15988       -0.834
       17.51585       16.63211       31.42014        0.417
       18.86990       17.03483       31.96444        0.417
       11.60661        3.76851       23.52156       -0.834
       12.11257        3.81734       24.33264        0.417
       11.59656        4.66659       23.19052        0.417
       26.54946       14.34576        6.62038       -0.834
       25.78153       13.77592        6.57795        0.417
       27.29264       13.75722        6.48788        0.417
       26.04087       20.73408       12.37128       -0.834
       26.11573       21.13240       11.50412        0.417
       25.43735       20.00147       12.24758        0.417
        2.53933       10.94981       16.63247       -0.834
        2.06954       10.71802       15.83135        0.417
        3.35965       10.45934       16.58007        0.417
       19.83770       21.32047       18.40080       -0.834
       20.09186       20.46064       18.73594        0.417
       20.30253       21.94298       18.95996        0.417
       27.91874        9.23949       23.81806       -0.834
       27.30163        9.82847       24.25223        0.417
       28.00208        8.49634       24.41555        0.417
       24.66867       23.82037       24.27124       -0.834
       24.01493       23.70634       24.96106        0.417
       25.45891       24.10001       24.73336        0.417
       11.53877       15.82612       25.59911       -0.834
       12.06335       16.05416       24.83162        0.417
       12.11158       16.00827       26.34406        0.417
       20.58564       29.35206       10.47461       -0.834
       20.42668       28.40815       10.47591        0.417
       21.39995       29.45897       10.96623        0.417
       19.66871       21.81905       23.65351       -0.834
       19.79857       22.68449       24.04131        0.417
       20.47206       21.34095       23.85913        0.417
       21.25058       10.11973        8.72387       -0.834
       21.20395       11.06501        8.58069        0.417
       21.56760        9.76646        7.89265        0.417
       25.85767       20.48368       27.94118       -0.834
       24.98361       20.87386       27.94396        0.417
       26.43856       21.19810       27.67961        0.417
       22.03303       14.81493        6.62357       -0.834
       22.44148       14.69339        7.48067        0.417
       22.76321       15.00487        6.03452        0.417
       11.26079        4.95369       12.54178       -0.834
       12.08685        4.69018       12.94727        0.417
       10.79139        5.41918       13.23402        0.417
       15.39270       22.52735       24.77790       -0.834
       15.90133       22.79706       24.01319        0.417
       15.72808       21.65739       24.99452        0.417
       24.26724       13.85592        3.72892       -0.834
       24.25870       13.19847        4.42456        0.417
       25.18315       14.12680        3.66596        0.417
       10.13446        9.69766       13.47715       -0.834
        9.77718        8.99854       12.92960        0.417
       10.73212       10.17289       12.89993        0.417
       27.38887       20.30848       16.54508       -0.834
       27.78152       20.32066       15.67221        0.417
       26.80767       19.54796       16.53620        0.417
       24.96216       12.75452       15.16493       -0.834
       24.67702       12.83017       14.25432        0.417
       24.56179       13.50444       15.60487        0.417
       20.59345       31.02204       20.82961       -0.834
       20.08983       30.50433       20.20145        0.417
       21.49246       30.70775       20.73356        0.417
       23.50712       12.25806       12.68778       -0.834
       23.37700       13.01482       12.11628        0.417
       23.33355       11.50159       12.12755        0.417
       25.10617       16.46642        6.49959       -0.834
       25.11186       16.72549        7.42104        0.417
       25.64577       15.67640        6.46907        0.417
       22.60013       18.80743        3.06338       -0.834
       22.86404       19.63213        2.65539        0.417
       23.38992       18.49428        3.50429        0.417
       15.72949       14.37987       28.84291       -0.834
       16.44264       13.99857       29.35503        0.417
       15.03026       14.52928       29.47930        0.417
        7.18836       10.66504       12.07751       -0.834
        8.03194       10.77031       11.63760        0.417
        7.32493       11.03436       12.94997        0.417
       23.12520       29.41706       20.47296       -0.834
       23.91747       29.16540       20.94753        0.417
       23.16991       28.92481       19.65325        0.417
       18.76178       10.83843       13.62131       -0.834
       18.79450       11.67240       13.15264        0.417
       19.67294       10.54731       13.65703        0.417
       15.63629       24.30553       17.28131       -0.834
       15.56013       24.88711       16.52487        0.417
       16.56086       24.34893       17.52526        0.417
       15.34779       21.52184       19.37039       -0.834
       14.39957       21.57450       19.49014        0.417
       15.63047       22.43280       19.28988        0.417
       15.38692       25.56240        7.86559       -0.834
       15.90658       26.36605        7.84712        0.417
       16.03266       24.86095        7.95048        0.417
        6.75104       15.93069        9.35771       -0.834
        6.68431       15.25630       10.03371        0.417
        7.09109       15.46924        8.59111        0.417
        9.31881       24.04600       22.51923       -0.834
        9.48126       24.28799       23.43099        0.417
        8.66974       23.34426       22.56918        0.417
       27.06388       13.45685        9.70482       -0.834
       26.64923       12.61164        9.53186        0.417
       27.89866       13.23472       10.11718        0.417
       25.62451       17.01423       14.01399       -0.834
       26.50279       17.21109       13.68826        0.417
       25.53640       17.54755       14.80395        0.417
       18.61589       14.61942        1.11448       -0.834
       18.51412       15.14282        0.31954        0.417
       18.43897       15.23132        1.82898        0.417
        8.53872        8.50620       20.53178       -0.834
        8.15538        8.14969       19.73041        0.417
        7.99808        8.14863       21.23611        0.417
       24.28187       18.26273       26.80830       -0.834
       24.67527       19.11042       27.01537        0.417
       23.34131       18.40097       26.91996        0.417
        9.32065       10.56234        9.79348       -0.834
        9.29676        9.72303        9.33390        0.417
       10.24654       10.70023        9.99335        0.417
       16.09127        2.70811       16.29140       -0.834
       15.86516        1.81276       16.03951        0.417
       16.58806        3.04853       15.54739        0.417
        9.84759       14.70493       28.75898       -0.834
        8.95808       15.03375       28.62902        0.417
       10.34820       15.07275       28.03074        0.417
       20.37278       18.86359        5.07735       -0.834
       21.08663       18.94680        4.44512        0.417
       19.76641       19.56808        4.84877        0.417
       16.88974        8.70053       12.88432       -0.834
       16.31047        8.92364       13.61295        0.417
       17.64446        9.27938       12.99182        0.417
       16.92616       16.55173       26.76307       -0.834
       16.48133       17.39031       26.64007        0.417
       16.86232       16.38178       27.70289        0.417
       12.73130       11.61765        9.19841       -0.834
       13.02998       10.70884        9.16554        0.417
       12.38014       11.78663        8.32412        0.417
       19.88429        9.44038       19.74646       -0.834
       20.50843        9.06692       20.36871        0.417
       19.33696       10.02124       20.27491        0.417
       22.28487        9.11646       25.25721       -0.834
       21.82050        8.70429       25.98570        0.417
       21.59375        9.37431       24.64722        0.417
        4.26834       23.07212       14.16377       -0.834
        4.31587       22.12081       14.06897        0.417
        4.06646       23.39116       13.28417        0.417
       26.66005       18.80925       25.41306       -0.834
       26.65909       19.59460       25.96028        0.417
       25.80655       18.40571       25.57092        0.417
        4.53609        7.74897       18.65668       -0.834
        4.65268        8.67673       18.86140        0.417
        5.39828        7.36039       18.80455        0.417
       20.50569       30.76999       17.20838       -0.834
       20.21262       30.53584       16.32774        0.417
       20.04446       31.58512       17.40599        0.417
       14.20616        6.45248       25.94201       -0.834
       14.25216        5.49681       25.91348        0.417
       15.10851        6.74041       25.80381        0.417
       21.90315       10.57226       18.20382       -0.834
       21.28926       10.05105       18.72123        0.417
       22.62628       10.75642       18.80332        0.417
        9.74292       15.60731       17.08262       -0.834
        8.78939       15.66654       17.14178        0.417
       10.05918       16.01504       17.88882        0.417
       24.10538        7.57413       11.07133       -0.834
       24.98571        7.42944       10.72447        0.417
       23.96357        6.84670       11.67711        0.417
        8.77203       26.59707        7.81230       -0.834
        9.17232       25.73076        7.73810        0.417
        8.12049       26.62122        7.11149        0.417
        4.54960        9.67079       15.71816       -0.834
        3.96445        9.72796       14.96279        0.417
        5.10282        8.91113       15.53624        0.417
       25.64732       14.45930       25.38650       -0.834
       26.01072       13.57599       25.32386        0.417