%Nproc=32
%Mem=120Gb
%chk=temp.chk
#p cam-b3lyp/6-31+G(d,p) nosymm charge Freq 

Calculation for S0 with freq for abs spect

0  1
 C         17.15981       16.97847       15.29870
 C         15.39059       16.00026       16.64261
 C         16.03683       16.09179       17.79345
 C         17.29683       16.79848       17.82867
 N         17.81333       17.10379       16.53797
 H         14.34664       15.61498       16.57935
 H         15.62936       15.68353       18.71036
 O         18.01673       17.06003       18.80274
 O         17.59716       17.44563       14.26429
 N         15.92514       16.39069       15.45880
 H         15.56191       16.04160       14.61303
 H         18.72038       17.45204       16.57006
 O         19.27627       12.61513       18.30925
 H         19.29461       11.98383       17.58998
 H         19.69031       13.39997       17.95033
 O         16.96113       16.28565       11.48959
 H         17.41317       17.07954       11.20384
 H         16.54596       16.53037       12.31662
 O         18.88116       14.67606       13.50532
 H         19.75087       14.73636       13.90053
 H         18.31871       14.35604       14.21064
 O         20.48699       17.67776       12.77681
 H         19.86312       17.07323       13.17875
 H         20.00832       18.06414       12.04345
 O         14.84800       19.15209       13.88917
 H         15.54656       19.48995       14.44961
 H         15.28328       18.94323       13.06265
 O         17.49597       20.30357       15.04110
 H         17.98758       20.82903       14.40988
 H         17.85652       19.42141       14.95147
 O         20.60022       18.06316       16.15583
 H         21.11087       18.76421       15.75086
 H         21.07397       17.26178       15.93317
 O         15.13962       14.55430       13.48655
 H         14.59189       14.12904       12.82671
 H         15.80477       13.90106       13.70355
 O         17.25952       19.58314       20.10007
 H         17.31338       18.67619       19.79878
 H         17.68563       19.57699       20.95718
 O         12.53678       19.74090       14.94909
 H         13.18641       19.25732       14.43884
 H         12.97343       19.92499       15.78076
 O         17.77684       13.55440       15.63977
 H         18.32626       12.80546       15.87099
 H         17.06046       13.53144       16.27420
 O         16.16694       12.76678       17.75158
 H         16.38310       12.37833       18.59930
 H         15.21255       12.71459       17.70005
 O         16.04627       15.82715       21.85418
 H         16.48882       16.18291       22.62478
 H         16.27089       16.43256       21.14760
 O         14.17607       18.04146       18.84830
 H         14.01326       17.96388       19.78835
 H         14.08662       18.97681       18.66564
 O         18.32828       21.03212       17.93208
 H         17.88707       21.06552       17.08329
 H         17.77513       20.46365       18.46789
 O         19.11541       16.18894       20.91577
 H         18.87624       16.58818       20.07933
 H         19.90964       15.68987       20.72509
 
        9.76095       10.80555       25.39352       -0.834
        8.82490       10.76855       25.19689        0.417
       10.09730       11.50202       24.82958        0.417
       17.09685       14.03227        7.40578       -0.834
       16.54967       13.60892        8.06728        0.417
       16.68449       13.80543        6.57227        0.417
       11.67631        2.79618       18.23531       -0.834
       10.79828        2.96181       17.89199        0.417
       11.95755        1.99275       17.79757        0.417
       26.22991       14.48204        5.28441       -0.834
       26.62934       13.87639        5.90880        0.417
       26.54819       14.19045        4.43006        0.417
       21.63915       14.02983       14.25032       -0.834
       22.05067       14.05263       15.11424        0.417
       21.82285       13.15037       13.92012        0.417
       13.72338        8.27777       17.85714       -0.834
       14.50665        8.80479       17.69913        0.417
       13.59953        8.31036       18.80574        0.417
       21.64938       19.12920       10.00481       -0.834
       22.28957       18.50488        9.66333        0.417
       20.82422       18.64422       10.01720        0.417
        6.27444       11.92734        8.47890       -0.834
        6.91568       12.50708        8.06788        0.417
        6.01089       12.38757        9.27575        0.417
       21.20534       14.85542       29.25456       -0.834
       20.98394       15.63478       29.76429        0.417
       22.15312       14.76516       29.35358        0.417
        4.23746       19.61709       11.45186       -0.834
        3.50086       19.07346       11.17236        0.417
        4.67844       19.86061       10.63794        0.417
       12.94318        3.52479       20.57745       -0.834
       13.67956        4.12913       20.67100        0.417
       12.76452        3.50793       19.63722        0.417
        5.07555       21.20451        9.32468       -0.834
        5.31391       21.13243        8.40044        0.417
        4.16823       21.50932        9.31545        0.417
       10.92781       16.50581       22.63587       -0.834
       10.11983       16.10395       22.31663        0.417
       11.43039       16.69619       21.84378        0.417
       25.12189       27.97779       15.98999       -0.834
       24.31969       28.28608       15.56849        0.417
       25.82309       28.24435       15.39542        0.417
       17.62774       24.58446       15.16932       -0.834
       17.16894       23.75328       15.04735        0.417
       17.06875       25.23234       14.74034        0.417
       29.55764       12.13921       12.79637       -0.834
       28.60097       12.11031       12.78240        0.417
       29.82839       11.27508       12.48619        0.417
       26.02449       16.20583        7.79832       -0.834
       25.42391       16.08456        7.06291        0.417
       25.90752       15.42221        8.33542        0.417
       26.23830        7.21182       15.75892       -0.834
       26.24493        6.84157       16.64158        0.417
       27.05626        7.70544       15.69958        0.417
       22.14482       28.60248       15.85144       -0.834
       21.87901       27.82354       16.34014        0.417
       22.26499       29.27623       16.52065        0.417
       21.46054       23.95365        7.10216       -0.834
       20.82034       24.50753        6.65540        0.417
       21.73445       24.46802        7.86151        0.417
       14.10419       21.50644       11.16430       -0.834
       14.68164       22.26509       11.24935        0.417
       13.60352       21.67423       10.36593        0.417
       11.61556       14.71978       17.79066       -0.834
       10.83084       14.92387       17.28195        0.417
       11.52951       15.24555       18.58589        0.417
       13.48004       19.52399       23.41081       -0.834
       13.43698       20.43881       23.68916        0.417
       14.40363       19.28909       23.50041        0.417
        6.13436        9.32307       11.26802       -0.834
        5.51341        8.60332       11.38027        0.417
        6.43250        9.52339       12.15528        0.417
        8.62293       16.34210       27.48731       -0.834
        8.66003       16.96147       26.75845        0.417
        8.11574       15.60398       27.14943        0.417
       28.10795       20.27858       17.10211       -0.834
       28.82659       20.70592       16.63611        0.417
       27.34041       20.81479       16.90313        0.417
        5.28313       11.89592       11.09551       -0.834
        4.38328       11.72065       10.82023        0.417
        5.70002       11.03451       11.11573        0.417
        2.94891       18.80154       14.13775       -0.834
        3.10026       18.71325       13.19672        0.417
        3.78700       18.57054       14.53832        0.417
       11.15324       20.21779        4.33149       -0.834
       11.27962       21.05255        3.88046        0.417
       11.58675       19.57418        3.77108        0.417
       30.77756       13.87434       20.37712       -0.834
       30.82400       13.20036       19.69902        0.417
       31.62436       14.31837       20.33254        0.417
       17.42717       18.00609        5.64905       -0.834
       17.51944       17.88719        6.59434        0.417
       16.55492       17.66669        5.44849        0.417
       17.90770        6.25750        7.18452       -0.834
       18.29989        7.05177        7.54722        0.417
       17.61972        6.51095        6.30756        0.417
        8.68491        7.67126       24.20436       -0.834
        8.22798        7.93890       25.00173        0.417
        8.57153        6.72142       24.17011        0.417
       21.35255       19.72984       24.86420       -0.834
       20.50360       19.57138       25.27698        0.417
       21.99309       19.44056       25.51401        0.417
       21.48007        7.78272        8.81865       -0.834
       21.73278        7.46466        7.95193        0.417
       20.53030        7.89010        8.76736        0.417
       12.13853       21.81010       13.17038       -0.834
       12.34524       21.09868       13.77650        0.417
       12.69906       21.64917       12.41134        0.417
       30.26691       22.74488       12.10678       -0.834
       29.41107       22.31655       12.12436        0.417
       30.08218       23.63841       11.81745        0.417
       23.63576        4.47968       16.01219       -0.834
       24.01989        3.89802       16.66820        0.417
       23.13679        3.89813       15.43856        0.417
        7.92095       13.08060       11.76108       -0.834
        7.16453       12.60927       11.41191        0.417
        8.48447       12.39620       12.12201        0.417
       17.00669       25.03189        7.96377       -0.834
       17.89591       25.25703        7.69022        0.417
       16.54667       25.87059        7.99842        0.417
        8.52886       12.79813       15.12398       -0.834
        8.91813       12.75800       14.25042        0.417
        9.21728       12.48052       15.70830        0.417
       13.33659       21.80179       17.34238       -0.834
       12.95993       21.53668       18.18147        0.417
       13.02989       22.69947       17.21456        0.417
       27.25266       26.03178       16.28751       -0.834
       26.88936       26.52617       15.55278        0.417
       26.56524       26.05146       16.95331        0.417
       25.88217       11.84128       17.31439       -0.834
       25.60573       12.58148       16.77410        0.417
       25.30887       11.12249       17.04814        0.417
        6.02715       26.53237       16.47739       -0.834
        6.96685       26.40794       16.34432        0.417
        5.69705       25.65920       16.68911        0.417
       13.60023       17.46003       21.40627       -0.834
       14.46563       17.14351       21.66537        0.417
       13.40210       18.15651       22.03229        0.417
       15.50333       11.26974       27.85112       -0.834
       15.52401       10.63251       28.56509        0.417
       15.84199       12.07639       28.23952        0.417
       25.85469       23.78708       13.02257       -0.834
       25.71486       23.37612       12.16946        0.417
       25.03265       24.24112       13.20786        0.417
        6.31498       16.28659        6.79051       -0.834
        6.39206       17.24067        6.79291        0.417
        5.97081       16.07580        5.92256        0.417
       25.08114       16.68886       17.60069       -0.834
       25.51261       16.57134       16.75437        0.417
       24.37027       16.04785       17.59871        0.417
       29.26650       16.86509       23.35036       -0.834
       30.12136       16.44464       23.44347        0.417
       28.73271       16.22263       22.88287        0.417
       15.49063       29.74539       12.16644       -0.834
       15.58057       30.14524       13.03146        0.417
       15.40685       30.48683       11.56687        0.417
       22.29389       15.07892       23.21916       -0.834
       23.00133       15.54177       23.66806        0.417
       22.48630       14.15190       23.36003        0.417
       21.54423       14.04467       11.10448       -0.834
       20.99133       13.84356       11.85952        0.417
       20.92716       14.19409       10.38815        0.417
       12.55700        3.22874       13.76754       -0.834
       12.62187        2.37841       14.20222        0.417
       11.76549        3.62483       14.13203        0.417
       22.72156       10.99006       17.56671       -0.834
       22.06179       10.52768       18.08355        0.417
       23.28850       10.29782       17.22669        0.417
       31.17495       15.01188       17.21956       -0.834
       31.00733       14.10382       17.47166        0.417
       31.08931       15.01599       16.26621        0.417
       11.24678       16.45319       19.73667       -0.834
       12.11362       16.85776       19.77051        0.417
       10.70835       17.07948       19.25284        0.417
       16.18195       23.34934       11.74207       -0.834
       15.54772       24.05683       11.85798        0.417
       17.00798       23.71290       12.06102        0.417
       18.71644       11.18485        4.57154       -0.834
       18.70082       10.23771        4.70911        0.417
       19.61822       11.44066        4.76541        0.417
       23.89158       16.35441       25.35942       -0.834
       24.31600       15.51242       25.52420        0.417
       24.53158       17.00593       25.64605        0.417
       18.65246       24.16261       12.20477       -0.834
       19.15186       24.57368       11.49918        0.417
       19.12864       24.39408       13.00221        0.417
       16.95614       27.96288       23.40210       -0.834
       17.17399       27.04000       23.27150        0.417
       17.11341       28.11709       24.33362        0.417
       23.94447       26.18142       13.22337       -0.834
       23.63964       25.82289       14.05689        0.417
       23.14538       26.45620       12.77373        0.417
        6.70746       11.14733       24.55118       -0.834
        6.08831       10.58294       24.08818        0.417
        6.39632       12.03619       24.37988        0.417
       11.81751       21.92307        9.54981       -0.834
       12.06818       21.42267        8.77328        0.417
       10.94015       21.60723        9.76595        0.417
       15.74419        5.65659        9.08983       -0.834
       16.01590        6.25393        9.78667        0.417
       16.50486        5.60072        8.51147        0.417
       31.55236       17.69869       21.48980       -0.834
       30.59554       17.67245       21.49591        0.417
       31.81829       16.79277       21.64735        0.417
       18.76063       12.94045       29.28946       -0.834
       19.45713       13.53261       29.00580        0.417
       18.78632       12.98027       30.24549        0.417
       18.80517       17.68156        1.39228       -0.834
       18.21487       16.97314        1.13555        0.417
       19.13343       17.42048        2.25270        0.417
       14.02841       10.45403       22.13322       -0.834
       14.70312       10.12233       22.72565        0.417
       14.44798       11.18252       21.67551        0.417
       12.86943       24.76504       19.53025       -0.834
       12.46530       25.50711       19.97996        0.417
       13.10736       24.15954       20.23239        0.417
        9.12556        8.40902        5.67546       -0.834
        8.83112        8.01016        6.49427        0.417
        9.42648        9.28181        5.92827        0.417
       26.61717       20.37497        8.27456       -0.834
       25.94281       20.84169        7.78096        0.417
       26.13178       19.87741        8.93264        0.417
        9.88388       24.62297       20.95290       -0.834
       10.04275       24.59138       20.00951        0.417
        9.45177       23.79225       21.15145        0.417
       17.02666        9.66246       21.73377       -0.834
       16.80721       10.50434       21.33463        0.417
       17.32465        9.88538       22.61566        0.417
        5.41235       23.91985       16.97439       -0.834
        5.08004       23.19033       17.49745        0.417
        6.35820       23.90897       17.12095        0.417
        6.83271       23.95403       22.80592       -0.834
        7.25771       23.10668       22.93854        0.417
        6.67078       24.28234       23.69036        0.417
       11.79113       13.17666       10.65113       -0.834
       12.20305       12.45534       11.12679        0.417
       11.91702       13.93931       11.21570        0.417
        6.12169       20.38209       16.72015       -0.834
        6.80811       20.65497       16.11138        0.417
        5.94841       19.46861       16.49265        0.417
        7.56603       14.36500        8.25346       -0.834
        7.08306       15.09282        7.86200        0.417
        7.77414       14.66363        9.13875        0.417
        1.95529       20.93149       15.90358       -0.834
        1.12715       21.12528       15.46443        0.417
        2.37793       20.28111       15.34268        0.417
       14.01968       12.98511        2.81206       -0.834
       14.44594       13.84216        2.81107        0.417
       13.63727       12.90627        1.93812        0.417
       29.37539       14.87324       12.08620       -0.834
       29.41603       14.09727       12.64518        0.417
       29.69950       14.57425       11.23662        0.417
       15.90544       20.27989        7.56547       -0.834
       16.33978       20.95789        8.08304        0.417
       15.12401       20.70834        7.21615        0.417
       18.25928       18.55094       22.28930       -0.834
       18.98567       18.74062       22.88310        0.417
       18.49612       17.71956       21.87828        0.417
       10.14344       18.66447       15.94364       -0.834
        9.34532       18.90781       15.47456        0.417
       10.82214       19.22676       15.57024        0.417
        8.61675       29.03659       11.89702       -0.834
        8.72803       29.58748       12.67186        0.417
        9.45018       28.57396       11.80977        0.417
       20.22840       10.70281        7.91993       -0.834
       19.66727       11.29332        7.41729        0.417
       21.11746       10.91981        7.63936        0.417
        8.17131       18.45583       25.74437       -0.834
        7.90791       18.52609       24.82681        0.417
        8.80023       19.16664       25.86862        0.417
       21.17569       15.70921        4.06223       -0.834
       22.00909       16.13826        4.25609        0.417
       20.52782       16.41247        4.10601        0.417
       13.35878       12.64184       17.47410       -0.834
       13.18075       12.18478       18.29607        0.417
       12.82574       13.43553       17.52051        0.417
       31.42354       18.94914       14.70628       -0.834
       31.81862       19.82002       14.66485        0.417
       31.23726       18.81408       15.63541        0.417
       15.53883       22.82654       15.49718       -0.834
       15.54167       22.26032       14.72542        0.417
       14.73441       22.59525       15.96155        0.417
       20.42511       11.88071       23.13186       -0.834
       21.26339       12.12670       23.52303        0.417
       19.95139       12.70737       23.03994        0.417
       24.68412       19.77681       24.08756       -0.834
       25.35798       20.17428       23.53604        0.417
       23.99956       20.44312       24.14787        0.417
        8.19981       21.59898       23.22798       -0.834
        8.08372       21.40926       24.15898        0.417
        8.31694       20.74060       22.82093        0.417
       20.52826        3.82428       17.11591       -0.834
       21.26692        3.25711       17.33713        0.417
       20.01593        3.87676       17.92275        0.417
       15.88775       16.41075       30.39194       -0.834
       16.49832       16.75740       29.74135        0.417
       15.10476       16.95352       30.29940        0.417
       19.19389        2.23833       14.61684       -0.834
       19.26958        2.84427       15.35394        0.417
       18.71846        2.73170       13.94842        0.417
       25.64115       14.06537       26.04365       -0.834
       25.47974       13.41743       26.72947        0.417
       26.57006       13.96717       25.83455        0.417
       12.64591       11.91399       20.04396       -0.834
       12.05238       11.36499       20.55637        0.417
       13.08771       12.46099       20.69345        0.417
       22.20470       18.69780       22.03816       -0.834
       22.96112       18.60118       22.61671        0.417
       21.53137       19.09806       22.58830        0.417
       22.61012       15.35550       18.30104       -0.834
       22.50608       16.29327       18.46229        0.417
       22.22561       14.93558       19.07049        0.417
        8.04970       23.29977       17.64262       -0.834
        8.06317       22.87715       18.50136        0.417
        8.79644       23.89842       17.65803        0.417
       13.50406       30.75561       14.81896       -0.834
       13.11804       31.24893       14.09518        0.417
       14.27981       31.25911       15.06579        0.417
       24.98992        8.37377       19.23292       -0.834
       24.25369        8.64911       19.77916        0.417
       24.71868        7.52959       18.87232        0.417
       15.07857       29.34499       21.91185       -0.834
       15.75296       29.95132       22.21811        0.417
       15.19598       28.56305       22.45131        0.417
       21.15457       26.09357       27.80368       -0.834
       20.54006       26.26934       27.09114        0.417
       20.86261       25.25979       28.17219        0.417
       16.15303        7.49583        5.36552       -0.834
       16.10307        8.29897        4.84716        0.417
       15.25660        7.34875        5.66720        0.417
       10.99279        7.89530       17.49947       -0.834
       10.76913        7.81950       18.42709        0.417
       11.91404        8.15510       17.49519        0.417
       18.41296       17.92929       31.51560       -0.834
       18.35193       17.40428       30.71756        0.417
       19.28703       17.74360       31.85876        0.417
        8.39838       26.79160       15.27559       -0.834
        8.07688       27.53752       14.76916        0.417
        9.20763       27.10609       15.67865        0.417
       14.34506       25.22698       11.67944       -0.834
       13.64397       25.04920       11.05246        0.417
       13.89954       25.60870       12.43577        0.417
       22.95783       21.95742       24.70251       -0.834
       22.25672       21.30885       24.76593        0.417
       22.60423       22.63783       24.12958        0.417
       18.80854        6.15101       11.06044       -0.834
       19.13307        6.70077       11.77365        0.417
       18.40325        6.76579       10.44888        0.417
       17.05942        2.63837       19.46885       -0.834
       16.71712        2.53549       20.35681        0.417
       16.41061        3.18298       19.02314        0.417
       13.45856        7.50944        7.25592       -0.834
       12.78693        7.10461        7.80478        0.417
       14.26679        7.42080        7.76101        0.417
       12.31888       29.18143       21.76806       -0.834
       12.19291       28.23422       21.71188        0.417
       13.25283       29.30959       21.60208        0.417
       19.30514       11.15435       15.64456       -0.834
       19.95072       11.57262       15.07490        0.417
       18.60174       10.88582       15.05350        0.417
       27.17979        6.43211       12.60836       -0.834
       26.40475        6.51079       13.16456        0.417
       27.48178        5.53387       12.74322        0.417
       22.42133       20.43314       16.43353       -0.834
       23.23211       20.03386       16.74888        0.417
       21.98409       20.74606       17.22544        0.417
       15.79562        7.85686       13.66137       -0.834
       16.36881        7.20850       14.07042        0.417
       15.12930        8.03996       14.32373        0.417
       23.64372        9.27724       13.65427       -0.834
       24.54159        9.50079       13.40914        0.417
       23.38911        8.59322       13.03498        0.417
       11.45324       22.03612       21.96303       -0.834
       11.81065       22.76257       22.47368        0.417
       10.69513       21.73912       22.46630        0.417
       12.49458        6.97506       12.03042       -0.834
       13.03087        7.07444       12.81703        0.417
       12.56053        6.04573       11.81083        0.417
       12.99092       26.43314       13.42226       -0.834
       13.35755       27.03185       14.07292        0.417
       12.62335       25.71487       13.93724        0.417
        9.79198        7.85461       19.95425       -0.834
        9.69391        8.05863       20.88430        0.417
       10.21061        6.99392       19.94021        0.417
        5.10001       15.49019       13.42112       -0.834
        4.26114       15.47398       12.96039        0.417
        5.51981       16.29855       13.12691        0.417
       18.99469       20.61065        5.76467       -0.834
       18.57304       19.76646        5.92522        0.417
       18.27646       21.19562        5.52347        0.417
       12.80460       20.74672        6.56350       -0.834
       12.82030       19.86223        6.92908        0.417
       12.20905       20.68711        5.81651        0.417
       22.75737       29.69036       22.22605       -0.834
       22.54627       30.62378       22.24581        0.417
       22.53229       29.41215       21.33826        0.417
       11.90932       23.72507       27.05363       -0.834
       12.46454       24.48117       26.86315        0.417
       12.20376       23.42136       27.91229        0.417
       22.44999        9.10881        4.53587       -0.834
       21.58194        9.51133        4.50957        0.417
       22.34420        8.27951        4.06971        0.417
       28.81800       15.95945       15.21358       -0.834
       29.62290       15.63266       14.81160        0.417
       29.11286       16.62783       15.83208        0.417
        6.09622       13.72670        5.25783       -0.834
        6.12922       13.96263        4.33075        0.417
        7.00980       13.57405        5.49929        0.417
       15.24573       10.17458       16.26398       -0.834
       16.02932       10.43363       15.77910        0.417
       14.58147       10.81351       16.00561        0.417
       17.66737       12.55684       20.52014       -0.834
       18.23940       12.51449       19.75384        0.417
       18.13444       13.11987       21.13746        0.417
       29.85960       11.96471       22.20172       -0.834
       29.79350       12.67801       21.56684        0.417
       30.35349       12.33815       22.93169        0.417
       25.02896       14.39746       23.38343       -0.834
       25.32834       14.39961       24.29260        0.417
       24.71333       13.50577       23.23681        0.417
       14.85967        7.31109       27.90896       -0.834
       15.51449        6.71461       28.27180        0.417
       14.95369        8.11257       28.42376        0.417
        8.74734        5.71913       17.80216       -0.834
        8.53504        6.00300       18.69130        0.417
        9.07853        6.50711       17.37131        0.417
       25.59652       18.83480       10.38434       -0.834
       26.18811       18.77174       11.13419        0.417
       24.72369       18.70677       10.75583        0.417
       20.68040        9.88618       19.13399       -0.834
       20.58209        9.96251       20.08306        0.417
       20.07103       10.53222       18.77687        0.417
        6.60712       17.86668       13.03763       -0.834
        7.26446       18.49328       13.34013        0.417
        6.40381       18.14454       12.14450        0.417
        7.79445        9.26091       22.11999       -0.834
        8.02957        8.80672       22.92910        0.417
        7.65149       10.16884       22.38728        0.417
       10.10160       19.13172       28.62077       -0.834
       10.78430       18.48767       28.80876        0.417
       10.30518       19.44719       27.74028        0.417
       16.58074       23.90333       19.23743       -0.834
       17.42849       23.57578       19.53787        0.417
       15.95534       23.22874       19.50206        0.417
       19.92059       25.71790       16.18034       -0.834
       19.65583       26.01110       15.30846        0.417
       19.21581       25.13447       16.46163        0.417
       10.63558       27.54798       17.03325       -0.834
       10.30765       28.34302       17.45351        0.417
       11.45019       27.81886       16.60985        0.417
        5.50119       17.91752       26.28461       -0.834
        6.45022       18.04040       26.30633        0.417
        5.14762       18.70604       26.69627        0.417
       12.38787       18.39582        7.78538       -0.834
       11.55406       18.27634        7.33073        0.417