%Nproc=32
%Mem=120Gb
%chk=temp.chk
#p cam-b3lyp/6-31+G(d,p) nosymm charge Freq 

Calculation for S0 with freq for abs spect

0  1
 C         17.83765       16.19711       17.15668
 C         16.06560       15.55096       15.66592
 C         15.23376       16.59200       15.94605
 C         15.65531       17.47966       17.05178
 N         16.98459       17.26323       17.47243
 H         15.85462       14.72883       14.91528
 H         14.24774       16.79947       15.56867
 O         15.05505       18.44066       17.50973
 O         18.92175       15.98924       17.73753
 N         17.30108       15.41457       16.21315
 H         17.99069       14.79820       15.83466
 H         17.18360       17.87507       18.25422
 O         20.28477       14.34254       13.26588
 H         20.25073       14.74747       12.39921
 H         19.39750       14.01476       13.41264
 O         20.63414       16.46584       15.06048
 H         20.75133       15.59087       15.43051
 H         20.62050       16.32613       14.11363
 O         19.99345       19.09148       13.82197
 H         19.73138       18.58824       13.05106
 H         19.99446       18.45382       14.53586
 O         12.81756       19.64673       17.22088
 H         12.31013       19.74361       18.02671
 H         13.63727       19.23947       17.50095
 O         18.50346       12.81363       14.95523
 H         17.89646       12.32468       15.51085
 H         19.15198       12.16562       14.68002
 O         11.43587       17.81693       15.36459
 H         11.95856       18.33477       15.97685
 H         11.83516       16.94720       15.38413
 O         18.66833       11.92682       18.26925
 H         17.91527       12.51760       18.25843
 H         19.40352       12.47996       18.53343
 O         16.85503       19.02481       20.36962
 H         16.15808       18.38971       20.53435
 H         16.95867       19.48834       21.20066
 O         17.37070       14.37132       12.28595
 H         16.58705       14.57911       11.77709
 H         17.26714       13.44903       12.52025
 O         14.05972       14.09912       19.67645
 H         13.41424       14.25294       18.98657
 H         13.77531       13.28626       20.09429
 O         17.88953       14.57857       20.15222
 H         18.35770       14.82361       19.35410
 H         16.98031       14.46999       19.87336
 O         19.60985       16.96760       12.17530
 H         18.87403       16.37139       12.31437
 H         19.48198       17.30380       11.28826
 O         17.21283       20.51946       18.24373
 H         16.53661       20.37114       17.58269
 H         17.02509       19.87652       18.92755
 O         15.01384       16.48323       20.84408
 H         14.68696       16.58504       21.73796
 H         14.77896       15.58709       20.60327
 O         16.30095       12.88053       18.32360
 H         15.91080       12.01973       18.17182
 H         15.55577       13.45303       18.50574
 O         20.67808       18.41446       18.53397
 H         21.02622       18.83732       17.74898
 H         20.31884       17.58455       18.22023
 
       15.53393        8.15643       29.63001       -0.834
       16.39914        8.28920       29.24268        0.417
       14.92810        8.22032       28.89169        0.417
       23.71313        5.70364       15.97615       -0.834
       23.24367        4.89348       16.17484        0.417
       24.05188        5.57366       15.09038        0.417
       16.24648       16.68055        7.39540       -0.834
       17.03918       17.06040        7.01648        0.417
       16.17198       17.09079        8.25702        0.417
        4.26492       20.76591       17.51156       -0.834
        5.10274       20.82771       17.05279        0.417
        3.62772       21.13134       16.89783        0.417
        8.08931       16.87505        7.72493       -0.834
        7.86601       17.62835        8.27165        0.417
        9.04634       16.86392        7.71098        0.417
       13.47391       20.68196       14.65644       -0.834
       13.34264       20.19421       15.46952        0.417
       14.17098       21.30542       14.86046        0.417
       27.63045        9.99682       20.96202       -0.834
       27.94901        9.96596       20.05992        0.417
       28.16420       10.67128       21.38208        0.417
       14.79811       24.38008        4.34929       -0.834
       14.04171       24.75048        4.80415        0.417
       14.47770       24.18778        3.46804        0.417
       22.91692       15.47131       23.92357       -0.834
       22.17798       15.14224       23.41180        0.417
       23.11237       16.32642       23.54040        0.417
       22.03146        8.46910       22.14610       -0.834
       22.96636        8.58850       21.97895        0.417
       21.65248        9.33932       22.02232        0.417
       19.84419       23.83534       20.38444       -0.834
       20.18519       24.72599       20.30259        0.417
       18.89407       23.93582       20.32608        0.417
       26.71989       10.84371       24.81039       -0.834
       27.67151       10.88646       24.71651        0.417
       26.39588       11.59642       24.31574        0.417
       18.15882       15.59876        4.76244       -0.834
       18.40569       16.49516        4.98992        0.417
       17.57320       15.69439        4.01134        0.417
       25.36296       16.67175       16.30093       -0.834
       25.17592       15.83869       16.73367        0.417
       25.69067       16.42471       15.43617        0.417
       21.52902       11.36152       12.01612       -0.834
       21.23269       11.50740       12.91452        0.417
       21.90292       10.48043       12.02682        0.417
       16.51966       10.66313        7.08619       -0.834
       17.31544       10.13905        7.17733        0.417
       16.10452       10.62090        7.94765        0.417
       16.93405       30.13181       14.44123       -0.834
       17.59953       30.71155       14.07073        0.417
       16.72097       29.52635       13.73113        0.417
       21.97241        8.30141       11.71168       -0.834
       22.02568        7.43150       12.10747        0.417
       22.40132        8.20489       10.86141        0.417
       28.14093       22.56254       17.49051       -0.834
       27.87449       23.34123       17.00176        0.417
       28.21151       21.87563       16.82763        0.417
       15.08906       26.41388       24.27247       -0.834
       15.23955       25.86023       23.50626        0.417
       15.66867       27.16466       24.14361        0.417
       16.86997       25.86837       26.57011       -0.834
       16.51465       26.58909       27.09025        0.417
       16.44004       25.95193       25.71898        0.417
       11.73404       15.98457       13.24339       -0.834
       12.40607       16.02221       12.56281        0.417
       11.23977       16.79745       13.13782        0.417
       10.85323       21.62226       13.71523       -0.834
       11.48581       21.49313       14.42191        0.417
       10.72800       20.74944       13.34278        0.417
       19.23562        8.53655       11.98873       -0.834
       18.85456        9.35896       11.68106        0.417
       20.15671        8.58853       11.73353        0.417
       28.67065       10.49962       15.66463       -0.834
       28.46303        9.75205       15.10404        0.417
       28.00029       11.15004       15.45532        0.417
       11.10095        9.77942       11.59792       -0.834
       10.92538        8.88375       11.88631        0.417
       11.21426        9.70850       10.65010        0.417
       15.95456       11.68856       12.60913       -0.834
       15.68455       10.96835       12.03938        0.417
       15.52839       11.50497       13.44634        0.417
       19.63551       25.25840       17.61923       -0.834
       19.09235       25.88176       18.10155        0.417
       20.52079       25.40266       17.95345        0.417
        8.36544       10.96218       11.67909       -0.834
        9.29500       10.81655       11.85499        0.417
        8.32796       11.83913       11.29728        0.417
        7.03872       10.70759       16.78915       -0.834
        7.20387       10.96782       15.88293        0.417
        6.23060       10.19621       16.74852        0.417
        8.78271       24.45368       20.54720       -0.834
        7.83844       24.58789       20.62836        0.417
        9.12662       24.63249       21.42240        0.417
       26.91195       13.61944       20.72359       -0.834
       27.83662       13.45628       20.90959        0.417
       26.68922       12.98668       20.04078        0.417
        4.96006       17.79932       23.53140       -0.834
        5.05673       18.64021       23.97839        0.417
        5.85166       17.45665       23.46930        0.417
       13.07191       17.55932       22.74112       -0.834
       12.72250       16.69116       22.54002        0.417
       12.45789       18.16665       22.32838        0.417
       21.45843       13.54990       27.04632       -0.834
       20.93597       14.34731       27.13244        0.417
       21.72840       13.34210       27.94084        0.417
       13.05954       11.94177       20.85544       -0.834
       13.57449       11.61885       21.59489        0.417
       12.61631       11.16501       20.51424        0.417
       16.23982       13.65938        8.44579       -0.834
       16.27877       14.10567        9.29168        0.417
       15.58495       14.14761        7.94678        0.417
       18.97446        9.08798        7.69707       -0.834
       19.65757        8.43131        7.83263        0.417
       19.39705        9.76948        7.17436        0.417
       10.62074       20.51215       25.40981       -0.834
       11.36394       20.84789       24.90864        0.417
        9.91517       20.43173       24.76798        0.417
        4.87135        9.30073       14.02746       -0.834
        5.16635        9.80342       13.26817        0.417
        5.46219        8.54841       14.06146        0.417
       25.14173        9.13954       19.26853       -0.834
       24.78103        8.65599       18.52536        0.417
       25.94759        8.67293       19.49012        0.417
        9.61920       25.00322       12.17203       -0.834
       10.13283       25.67110       11.71776        0.417
        9.87017       25.09166       13.09150        0.417
        8.01893       22.16084        5.29298       -0.834
        7.79408       23.07944        5.44080        0.417
        8.82675       22.02866        5.78916        0.417
       23.10076       25.29231       26.25706       -0.834
       22.31497       24.97390       26.70133        0.417
       23.31683       24.60351       25.62849        0.417
       20.26491       23.06808       25.93622       -0.834
       20.25247       22.39955       26.62117        0.417
       20.69011       22.64152       25.19225        0.417
       11.00831       24.95951       18.64756       -0.834
       11.71501       24.46220       19.05925        0.417
       10.26580       24.85947       19.24330        0.417
        8.75889       23.02548        8.34694       -0.834
        8.48165       22.89761        9.25414        0.417
        9.14487       22.18701        8.09351        0.417
       18.93218       30.26488       11.48770       -0.834
       19.58072       29.56969       11.37661        0.417
       19.21465       30.73330       12.27321        0.417
       27.30642       11.89563       11.86293       -0.834
       28.23703       11.75878       11.68555        0.417
       27.21356       12.84534       11.93809        0.417
       10.89389       18.78589       21.95553       -0.834
       10.28170       18.11530       22.25846        0.417
       10.55837       19.60217       22.32615        0.417
       26.18566       16.77832       28.02800       -0.834
       26.92021       17.39043       27.98344        0.417
       26.57635       15.92165       27.85563        0.417
        9.96447       28.23506       24.09582       -0.834
       10.16040       28.82597       24.82292        0.417
       10.29918       27.38475       24.38074        0.417
       21.25925        3.79407       24.32531       -0.834
       20.39400        3.43154       24.13519        0.417
       21.30592        4.59229       23.79909        0.417
       20.76452        7.37446       18.73034       -0.834
       20.45624        8.22763       19.03579        0.417
       20.21763        7.18011       17.96918        0.417
       10.13036       20.73868        7.61078       -0.834
       10.72555       20.43599        6.92495        0.417
        9.80647       19.93576        8.01901        0.417
       18.86160       12.71750       22.17408       -0.834
       18.64308       13.37928       21.51794        0.417
       18.14996       12.07980       22.11801        0.417
       22.30591       20.04895       29.59039       -0.834
       22.64600       19.91677       30.47532        0.417
       23.06565       19.92823       29.02079        0.417
       15.42342       26.04235       13.71206       -0.834
       15.05490       25.59095       12.95268        0.417
       16.27206       25.62239       13.85237        0.417
        6.02393       22.13682       15.22666       -0.834
        6.95509       22.21100       15.01767        0.417
        5.89349       22.73965       15.95865        0.417
       21.39974       16.33861        4.04672       -0.834
       20.86677       16.24500        3.25715        0.417
       21.39698       15.46722        4.44283        0.417
       29.20776       17.58213       10.67172       -0.834
       29.56363       18.43706       10.42946        0.417
       28.62860       17.34892        9.94617        0.417
       16.07489       17.43379       23.65848       -0.834
       16.61088       16.66812       23.45186        0.417
       15.88614       17.34947       24.59310        0.417
       23.57123       11.97081       23.31159       -0.834
       23.69273       11.07164       23.00669        0.417
       24.45011       12.34976       23.29765        0.417
       16.58834       19.13937       27.82090       -0.834
       15.95505       19.20756       27.10639        0.417
       17.31433       18.63704       27.45098        0.417
       17.11900       21.64743       29.58211       -0.834
       17.00348       21.02756       28.86194        0.417
       17.96286       22.06400       29.40717        0.417
       21.90825       20.44871        4.46240       -0.834
       21.91170       21.37255        4.21190        0.417
       21.47777       20.00373        3.73239        0.417
       10.82347       15.03149        5.65017       -0.834
       10.23321       15.63844        5.20360        0.417
       11.60192       15.00087        5.09402        0.417
       24.95735       12.55924       10.14605       -0.834
       25.78324       12.17773       10.44369        0.417
       24.53876       12.87880       10.94536        0.417
       21.79612       23.93050        8.53095       -0.834
       22.56302       23.37090        8.65318        0.417
       21.05043       23.33455        8.60182        0.417
       21.94328       18.92374       15.87576       -0.834
       21.62995       19.42844       15.12521        0.417
       22.03478       18.03084       15.54320        0.417
        8.36612       13.43895        4.67994       -0.834
        7.62483       14.01313        4.87239        0.417
        8.45828       12.89556        5.46254        0.417
       19.70677       26.14502        7.87682       -0.834
       19.31936       25.32619        7.56751        0.417
       20.07269       26.54955        7.09025        0.417
        9.68052       28.47982       17.84262       -0.834
        9.75824       29.33833       17.42649        0.417
       10.57231       28.13206       17.84375        0.417
       21.28165       27.48546       16.48606       -0.834
       21.45642       26.76735       17.09433        0.417
       20.87862       27.06421       15.72688        0.417
        4.73353       22.30216       12.91098       -0.834
        4.50509       23.21383       12.72957        0.417
        5.06639       22.31217       13.80838        0.417
       14.71085       19.85218       22.82699       -0.834
       14.47783       18.94474       22.63083        0.417
       15.51111       19.78718       23.34813        0.417
       15.63263        9.41422       24.74279       -0.834
       15.29034        8.53128       24.88236        0.417
       16.31659        9.51392       25.40498        0.417
       20.76043        5.74157       26.46224       -0.834
       21.03123        5.02231       25.89165        0.417
       20.87893        6.52805       25.92968        0.417
       24.23788       13.70129       15.20450       -0.834
       24.68954       14.43499       14.78748        0.417
       24.22103       13.92717       16.13451        0.417
       15.62848       14.49207       28.37198       -0.834
       15.18100       13.64889       28.44298        0.417
       16.55979       14.27129       28.38418        0.417
       17.62937       10.58822       16.30687       -0.834
       17.98316       11.05205       17.06577        0.417
       18.24768        9.87403       16.15243        0.417
        9.56273       14.20165       15.95365       -0.834
        8.82980       13.82654       16.44185        0.417
        9.33959       15.12773       15.85967        0.417
       22.69711       28.35995       10.07173       -0.834
       21.88209       27.92656       10.32501        0.417
       22.87226       28.97622       10.78290        0.417
       21.16327        6.09821       22.82789       -0.834
       21.52393        6.97361       22.68706        0.417
       20.93251        5.78990       21.95158        0.417
       12.64956       25.38987        5.68769       -0.834
       12.34540       26.29179        5.58641        0.417
       12.30517       25.11443        6.53726        0.417
       27.34619       12.18513        7.92090       -0.834
       27.27213       13.04174        8.34157        0.417
       27.27420       12.37055        6.98459        0.417
       20.11939       15.52806       23.02507       -0.834
       20.68214       15.01538       22.44481        0.417
       19.25024       15.14103       22.92001        0.417
       30.57823       12.28456       16.35388       -0.834
       29.98425       11.53908       16.44151        0.417
       30.65668       12.41919       15.40945        0.417
       14.77724        4.59442       17.95816       -0.834
       13.94272        4.12751       17.91580        0.417
       15.43909        3.91525       17.82809        0.417
        7.23713       25.71444       11.64116       -0.834
        8.06236       25.23698       11.72641        0.417
        6.70384       25.17037       11.06166        0.417
        2.89330       19.59241       22.04852       -0.834
        2.76887       20.32680       21.44735        0.417
        3.74484       19.22719       21.80824        0.417
       10.71333        3.83313       10.30014       -0.834
       11.32055        3.36027        9.73101        0.417
       10.48903        4.62301        9.80819        0.417
       18.95013       29.56978        8.45467       -0.834
       19.43539       28.82529        8.81034        0.417
       19.54840       30.31149        8.54512        0.417
       10.03919       19.14634       13.46440       -0.834
        9.36058       18.49262       13.29597        0.417
       10.61077       18.73702       14.11401        0.417
       18.32974       10.79886        2.60647       -0.834
       17.68699       11.49973        2.71546        0.417
       18.03332       10.31958        1.83274        0.417
       13.26747       14.59926        4.12164       -0.834
       13.70108       15.29418        3.62636        0.417
       12.95761       13.98665        3.45462        0.417
       21.00846       10.36225       19.25025       -0.834
       21.26616       10.71456       20.10213        0.417
       20.09208       10.62039       19.15104        0.417
        7.29200        8.82685       24.59822       -0.834
        7.48593        7.92077       24.35813        0.417
        7.72354        8.94866       25.44389        0.417
        6.13472       24.69148       20.85062       -0.834
        5.81441       25.43799       21.35693        0.417
        5.83114       23.92433       21.33595        0.417
       20.56522        6.95959        7.57193       -0.834
       21.14587        6.44763        8.13494        0.417
       20.97571        6.92376        6.70796        0.417
       20.40653        5.08473       20.35597       -0.834
       19.59714        4.57485       20.32223        0.417
       20.18334        5.91713       19.93940        0.417
       15.28252       31.00644       16.44915       -0.834
       15.57246       30.66451       15.60342        0.417
       14.69389       31.72790       16.22728        0.417
       17.19817        5.68046       18.82186       -0.834
       16.89075        5.54088       19.71754        0.417
       16.47327        5.38564       18.27064        0.417
       22.32381       26.31491       23.40760       -0.834
       22.51332       26.09360       24.31937        0.417
       21.39615       26.55084       23.40573        0.417
       11.71768       14.54494       17.93013       -0.834
       11.31102       13.82218       17.45213        0.417
       11.05851       14.80921       18.57191        0.417
       18.48616       25.81103       14.82213       -0.834
       18.87231       25.20094       15.45055        0.417
       18.33180       26.60963       15.32675        0.417
       29.19156       14.57470       17.88946       -0.834
       29.95591       14.15352       17.49624        0.417
       28.62713       13.84844       18.15440        0.417
       11.02726       22.67124       28.40700       -0.834
       10.62730       22.83984       27.55387        0.417
       11.88308       22.29537       28.20075        0.417
       10.52761       19.44897       10.68862       -0.834
       11.40535       19.21788       10.38463        0.417
       10.65557       19.74237       11.59072        0.417
        8.69333       22.64543       10.89885       -0.834
        8.98814       23.37671       11.44158        0.417
        9.02915       21.86661       11.34257        0.417
        7.61820       28.00907       20.80089       -0.834
        8.56232       28.14789       20.87563        0.417
        7.49882       27.63660       19.92724        0.417
        8.85810       16.19245       22.22902       -0.834
        8.03971       15.75566       21.99305        0.417
        9.43644       15.48319       22.50958        0.417
        3.85718       12.39378       23.77843       -0.834
        3.86776       11.50852       24.14236        0.417
        4.09473       12.27791       22.85844        0.417
       26.85412        9.48007        8.77457       -0.834
       26.83012       10.36951        8.42166        0.417
       26.54891        8.92793        8.05470        0.417
       22.49891       18.04784       26.67813       -0.834
       22.91448       18.29158       25.85101        0.417
       23.13274       17.47088       27.10429        0.417
       25.27364       18.28717       19.22564       -0.834
       25.58060       18.03306       20.09595        0.417
       25.87522       17.85107       18.62219        0.417
       18.55213       25.86049       12.08760       -0.834
       18.75967       26.28904       12.91797        0.417
       17.94700       25.15781       12.32486        0.417
       20.57468       16.32043       25.88135       -0.834
       20.69738       16.23027       24.93634        0.417
       21.38662       16.72133       26.19161        0.417
       23.19447        5.42520        8.13348       -0.834
       23.71519        6.05138        8.63644        0.417
       22.94349        4.75579        8.76998        0.417
       16.02665       17.57504       29.82422       -0.834
       16.89398       17.17015       29.82977        0.417
       16.08514       18.25851       29.15662        0.417
        8.52521        5.80908       10.97622       -0.834
        7.77485        6.09429       10.45483        0.417
        8.65019        4.89126       10.73490        0.417
        8.73799        5.35333       19.95359       -0.834
        9.38435        5.42418       19.25114        0.417
        8.02079        4.84879       19.56980        0.417
        6.92815       16.20343        5.16395       -0.834
        6.18099       16.80021        5.20671        0.417
        7.41301       16.36760        5.97277        0.417
       11.22374        6.62049       23.75774       -0.834
       10.57373        6.57463       23.05659        0.417
       11.00935        7.42407       24.23157        0.417
       17.65118       24.39525       28.76006       -0.834
       18.24259       25.07541       29.08231        0.417
       17.24871       24.77704       27.98001        0.417
       22.19166       25.78157       18.38776       -0.834
       22.03507       25.97180       19.31270        0.417
       23.13215       25.91598       18.27097        0.417
        7.78111       20.17901       28.90268       -0.834
        7.45208       20.84875       29.50219        0.417
        7.90648       20.64006       28.07325        0.417
       27.47459       14.59270        9.59512       -0.834
       26.52617       14.68691        9.50649        0.417
       27.83256       15.38915        9.20299        0.417
       23.78181       22.23307        9.48311       -0.834
       23.43506       21.55100       10.05824        0.417
       24.70999       22.01883        9.38922        0.417
       30.30115       15.98167       12.73676       -0.834
       30.59539       16.76255       13.20568        0.417
       30.29886       16.24156       11.81552        0.417
        8.28323       19.15359        9.20215       -0.834
        7.52291       19.31003        9.76221        0.417
        9.01110       19.03685        9.81273        0.417
       31.14057       15.09660       20.54753       -0.834
       30.39528       14.92685       21.12368        0.417
       31.18211       14.32946       19.97655        0.417
       12.64737       22.58029        7.06698       -0.834
       12.07393       21.92325        6.67240        0.417
       12.05558       23.27924        7.34533        0.417
       14.11861       15.87942        1.34269       -0.834
       14.60641       16.11546        2.13172        0.417
       14.74237       16.00660        0.62787        0.417
       19.52647       25.79905       26.15138       -0.834
       19.84148       24.90119       26.25553        0.417
       18.57967       25.73740       26.27794        0.417
       28.55423       16.84143       19.35392       -0.834
       28.68617       16.03417       18.85677        0.417
       28.56606       16.56381       20.26991        0.417
       15.09219        3.95747       14.88983       -0.834
       15.94688        3.64917       15.19097        0.417
       14.46272        3.50950       15.45491        0.417
       17.64952       18.50000        5.74930       -0.834
       18.28372       18.72324        5.06799        0.417
       17.40012       19.34199        6.13020        0.417
        9.06820        9.43444       26.67353       -0.834
        8.49450        9.61571       27.41801        0.417
        9.37391       10.29629       26.39071        0.417
       14.51046        8.89408        6.17146       -0.834
       13.73851        8.76168        6.72173        0.417
       14.95533        9.64763        6.55939        0.417
       16.61282       10.89650       27.79127       -0.834
       17.21385       11.23754       27.12893        0.417
       17.17544       10.42614       28.40645        0.417
       24.48036       19.88772       27.60147       -0.834
       24.95415       19.10734       27.31377        0.417
       24.05741       20.21758       26.80866        0.417
        1.80818       15.81713       20.34433       -0.834
        1.24561       15.10404       20.04226        0.417
        2.67347       15.41808       20.43531        0.417
       20.81489       24.21195        5.06784       -0.834
       20.16397       24.89916        4.92545        0.417
       21.51037       24.63990        5.56723        0.417
       13.16103       23.36162       11.63167       -0.834
       13.19326       22.51579       11.18472        0.417
       12.72909       23.17614       12.46549        0.417
       28.98209       20.30047       10.68146       -0.834
       29.01602       20.50127       11.61674        0.417
       29.84303       20.55555       10.34985        0.417
       14.09492       22.34922       18.70660       -0.834
       13.65321       22.66228       17.91722        0.417
       13.94972       21.40310       18.70364        0.417
        1.24304       15.09456       17.23724       -0.834
        0.85850       15.95047       17.04810        0.417
        1.63268       14.81794       16.40785        0.417
       14.28164       28.81451       10.43467       -0.834
       13.92518       29.63908       10.10414        0.417
       14.90436       28.53597        9.76319        0.417
       19.61236       26.63181       23.41398       -0.834
       19.20900       25.90279       22.94274        0.417
       19.55121       26.38433       24.33662        0.417
       16.95197       23.21511        8.99539       -0.834
       16.33240       23.10342        8.27435        0.417
       16.63591       23.98632        9.46610        0.417
       15.67617        5.77919        6.65508       -0.834
       15.72592        6.73028        6.55927        0.417