%Nproc=32
%Mem=120Gb
%chk=temp.chk
#p cam-b3lyp/6-31+G(d,p) nosymm charge Freq 

Calculation for S0 with freq for abs spect

0  1
 C         15.23385       16.33437       16.85119
 C         17.43585       15.41964       17.06165
 C         18.04766       16.40879       16.32431
 C         17.22847       17.46005       15.71690
 N         15.85395       17.29727       16.09667
 H         17.95302       14.66273       17.56122
 H         19.08964       16.33940       16.04909
 O         17.63480       18.47980       15.17733
 O         14.05288       16.24768       17.09922
 N         16.12468       15.42638       17.32183
 H         15.81284       14.68041       17.96519
 H         15.31994       18.10326       15.74969
 O         13.91863       18.62315       13.34893
 H         13.16813       18.05530       13.52366
 H         13.54272       19.49976       13.26851
 O         13.67422       14.15299       19.34029
 H         13.40645       13.24298       19.21216
 H         13.09135       14.65690       18.77234
 O         12.64318       18.66376       17.78604
 H         11.93896       18.34400       18.35002
 H         13.22334       17.91040       17.67603
 O         16.92770       17.19432       19.90155
 H         17.80498       17.29679       19.53260
 H         16.42650       17.92264       19.53470
 O         15.06210       15.30560       13.71023
 H         14.65591       15.98769       13.17545
 H         15.22157       14.58546       13.10016
 O         17.45248       11.95327       14.01790
 H         18.14649       12.56439       14.26510
 H         16.93970       12.42515       13.36169
 O         20.26089       13.99423       17.72904
 H         20.18243       14.09928       18.67722
 H         21.18464       14.16405       17.54440
 O         17.77429       15.01718       13.34131
 H         16.93294       15.21477       13.75281
 H         17.70933       15.40004       12.46642
 O         16.16538       13.27137       19.92087
 H         16.56308       13.64711       20.70630
 H         15.40717       13.82874       19.74568
 O         17.44489       14.80593       21.80528
 H         17.30870       15.60746       21.30007
 H         17.22206       15.04804       22.70415
 O         18.14666       17.90608       11.84125
 H         17.98019       17.10841       11.33901
 H         17.38122       17.99641       12.40886
 O         15.57600       19.32505       18.49148
 H         15.47513       19.64518       17.59506
 H         15.28694       20.05389       19.04054
 O         18.42071       21.10597       14.84124
 H         18.01928       20.27344       15.09020
 H         18.84655       20.92592       14.00310
 O         15.12066       20.15494       15.85013
 H         14.62007       20.94480       16.05448
 H         14.85911       19.92931       14.95743
 O         12.82124       14.88945       15.26069
 H         13.60858       14.54537       14.83887
 H         13.14292       15.32653       16.04917
 O         19.41605       13.46607       20.27077
 H         18.91951       13.96588       20.91874
 H         18.78178       13.27051       19.58106
 O         19.79490       13.13671       15.14344
 H         20.08664       13.85327       14.57981
 H         19.92655       13.46279       16.03370
 O         20.30640       16.00691       13.96298
 H         20.55747       16.52714       13.19972
 H         19.39072       15.77660       13.80577
 O         20.77295       19.07396       16.36726
 H         20.64239       19.62604       15.59629
 H         21.30066       18.34074       16.05081
 O         18.89186       19.13411       18.50185
 H         19.46616       19.03363       17.74270
 H         18.08604       19.50800       18.14535
 O         14.77783       12.74654       16.95471
 H         14.01562       12.21809       17.19138
 H         15.42582       12.11071       16.65128
 
       18.73162       30.18534       18.25030       -0.834
       19.45786       30.65623       17.84157        0.417
       17.94641       30.62248       17.92076        0.417
       14.45870       18.69424       28.09845       -0.834
       14.26188       19.28275       28.82725        0.417
       15.23913       19.06973       27.69081        0.417
       12.51466        7.74233       24.74765       -0.834
       13.10197        8.08267       24.07276        0.417
       12.38412        8.47831       25.34557        0.417
       18.55272       23.07852        7.05550       -0.834
       19.05657       23.54310        6.38727        0.417
       19.14925       22.40396        7.38008        0.417
       20.28572       29.22037       10.83977       -0.834
       19.91540       29.19046       11.72193        0.417
       21.23136       29.27370       10.97814        0.417
        7.08989       13.46199       22.64614       -0.834
        7.35896       13.16197       23.51437        0.417
        6.18876       13.15265       22.55393        0.417
       15.93779       12.25393        5.38728       -0.834
       16.52235       12.47034        4.66086        0.417
       16.52498       12.03276        6.11014        0.417
       12.41305       20.90945       13.86187       -0.834
       11.96390       21.69496       13.54966        0.417
       11.89730       20.62147       14.61506        0.417
        7.74806       18.78331       12.98894       -0.834
        7.58928       18.37441       12.13816        0.417
        8.46406       19.39832       12.82974        0.417
       21.64935       15.74797       10.97716       -0.834
       22.46113       15.43295       11.37464        0.417
       21.50510       15.16500       10.23179        0.417
       10.30037       17.48013       18.80106       -0.834
       10.12327       18.02797       19.56575        0.417
        9.43899       17.16590       18.52628        0.417
        8.67692       13.38487       27.31057       -0.834
        8.98414       13.25688       26.41309        0.417
        7.74968       13.60365       27.21791        0.417
        6.15249       19.84616       21.27930       -0.834
        5.73208       19.92666       20.42314        0.417
        6.82911       20.52322       21.27902        0.417
       20.81712        2.33883       22.31492       -0.834
       20.32623        2.10873       23.10379        0.417
       20.93978        3.28615       22.37637        0.417
       23.87555       23.84769       20.54597       -0.834
       23.64141       23.05114       21.02235        0.417
       23.45918       23.74657       19.69003        0.417
       20.65712       12.77518       28.73509       -0.834
       19.76552       12.76258       29.08312        0.417
       20.94967       11.86554       28.79161        0.417
        5.90833       11.35930        6.69632       -0.834
        6.27153       12.23881        6.59244        0.417
        6.46010       10.80508        6.14439        0.417
       19.70444       17.21409       30.58816       -0.834
       18.90518       17.71339       30.75585        0.417
       20.34204       17.56606       31.20931        0.417
       16.10846       25.91948       17.25923       -0.834
       16.43688       25.13438       17.69739        0.417
       15.16007       25.79512       17.22296        0.417
       13.67471       28.16812       20.61369       -0.834
       14.16197       28.45225       19.84033        0.417
       14.27557       28.31661       21.34386        0.417
        8.03716       15.93337       18.26814       -0.834
        7.60953       15.75393       19.10549        0.417
        7.41063       16.47683       17.79029        0.417
        8.08918        7.27752       19.35705       -0.834
        7.84508        6.94637       20.22133        0.417
        7.40914        7.91659       19.14405        0.417
       17.84509       28.62326       24.76972       -0.834
       18.41416       27.86627       24.90890        0.417
       17.76458       29.02523       25.63469        0.417
       16.74504        4.88001       20.08075       -0.834
       16.69747        5.80514       19.83972        0.417
       17.44483        4.52489       19.53265        0.417
       27.57480       26.11353       17.91773       -0.834
       27.84039       25.33708       18.41050        0.417
       27.19907       26.69844       18.57571        0.417
       10.75297        8.25885        9.15963       -0.834
       11.67279        7.99495        9.13683        0.417
       10.40541        7.99144        8.30879        0.417
       23.23184       23.30882        5.71359       -0.834
       22.79845       22.52692        5.37148        0.417
       22.80053       23.47494        6.55180        0.417
       13.57295       20.76476       29.96953       -0.834
       14.31462       21.26499       30.31001        0.417
       13.18804       20.35055       30.74187        0.417
       22.90269       22.30708       24.27076       -0.834
       22.25772       22.65588       24.88605        0.417
       22.64087       21.39578       24.13958        0.417
       24.57084       20.18547       12.72446       -0.834
       25.19427       19.58993       13.14026        0.417
       23.85135       19.62083       12.44205        0.417
        8.89483       18.47452       22.72134       -0.834
        8.21174       18.05678       23.24585        0.417
        9.45454       18.91345       23.36188        0.417
       22.94010       12.18251       12.07958       -0.834
       22.90380       11.22631       12.10400        0.417
       22.06067       12.46262       12.33327        0.417
       13.47118       25.79298       13.09486       -0.834
       13.27921       25.03042       13.64064        0.417
       14.41923       25.90526       13.16430        0.417
       14.00064       15.30808       30.61299       -0.834
       13.66232       15.64365       29.78284        0.417
       13.71423       14.39506       30.63737        0.417
        9.86304       16.48911       11.68105       -0.834
        9.26091       15.98141       11.13708        0.417
       10.69329       16.46673       11.20521        0.417
        6.49025       17.62686       10.96476       -0.834
        6.99687       16.96213       10.49819        0.417
        5.60451       17.54562       10.61107        0.417
        7.73229       19.81967        9.84609       -0.834
        7.54702       18.96226       10.22919        0.417
        8.63788       19.75629        9.54258        0.417
       10.53263       13.56705       25.19103       -0.834
       11.42867       13.39399       24.90224        0.417
       10.10047       13.93947       24.42241        0.417
       10.07450       12.05105        5.45641       -0.834
       10.05430       11.22845        4.96737        0.417
       10.88046       12.00476        5.97072        0.417
        9.49596        7.75799        6.68003       -0.834
        9.73708        7.61802        5.76433        0.417
        8.66947        8.23914        6.63972        0.417
       23.94698       15.20385       12.29452       -0.834
       24.29929       15.00399       13.16180        0.417
       24.71349       15.21719       11.72136        0.417
       28.92777       13.81942       20.42787       -0.834
       29.04036       13.33447       19.61032        0.417
       27.98196       13.82549       20.57499        0.417
        6.19729       17.15314       20.13935       -0.834
        5.99249       17.48169       19.26394        0.417
        6.74018       17.83708       20.53145        0.417
       12.83854       25.32650       10.51163       -0.834
       13.50246       25.45744        9.83466        0.417
       13.29961       25.48897       11.33458        0.417
       25.96225       22.97440       17.16090       -0.834
       25.44040       23.76505       17.02386        0.417
       26.70171       23.06783       16.56032        0.417
       23.30543       21.54090        9.47044       -0.834
       24.04053       22.13601        9.32312        0.417
       23.70454       20.67178        9.51032        0.417
       27.35398       12.25218       25.77357       -0.834
       27.24124       11.30428       25.84430        0.417
       27.56604       12.40054       24.85203        0.417
       17.54368       18.85866        4.45257       -0.834
       16.94406       19.21767        3.79851        0.417
       18.41033       19.14992        4.16914        0.417
       21.13835        3.75701       14.72184       -0.834
       21.25851        2.94540       15.21487        0.417
       21.89602        4.29364       14.95464        0.417
        9.48937       14.65197       22.37253       -0.834
        8.60594       14.28523       22.33659        0.417
        9.93823       14.27108       21.61777        0.417
       18.11318       12.32578        9.00579       -0.834
       17.75443       11.44394        9.10526        0.417
       17.35403       12.90375        9.08235        0.417
       10.67528       13.23681       20.58702       -0.834
       11.15510       13.76346       19.94777        0.417
        9.89891       12.93531       20.11523        0.417
       14.96706       24.68088       28.22727       -0.834
       15.79561       25.13623       28.07763        0.417
       14.78921       24.80636       29.15940        0.417
        4.71194        7.56979       17.23015       -0.834
        4.36384        7.65169       16.34226        0.417
        4.21595        6.84816       17.61676        0.417
       17.30294       15.40294        8.15708       -0.834
       16.90708       15.95211        7.48036        0.417
       18.13589       15.12006        7.77972        0.417
       28.69269       24.08237       19.48667       -0.834
       28.56740       23.21266       19.86633        0.417
       29.58967       24.07149       19.15270        0.417
        7.67615       12.04016       15.01827       -0.834
        7.10798       11.65670       15.68638        0.417
        7.51927       12.98228       15.08175        0.417
       17.23341       26.78597       27.54700       -0.834
       18.10739       26.56099       27.22800        0.417
       17.37435       27.07717       28.44788        0.417
       26.05831        8.57593       19.16951       -0.834
       26.51502        9.40708       19.03971        0.417
       26.28749        8.31283       20.06085        0.417
        5.53356       24.02580       16.11493       -0.834
        5.93393       23.36905       16.68467        0.417
        4.66581       23.67408       15.91609        0.417
        7.74536       10.55085       20.79740       -0.834
        7.76894        9.80830       20.19383        0.417
        7.66825       11.31839       20.23070        0.417
       21.52970       19.94561       13.81150       -0.834
       21.58762       20.45839       13.00531        0.417
       21.77600       19.05842       13.54983        0.417
       12.46770       20.97416       10.26604       -0.834
       12.96053       20.84232        9.45612        0.417
       12.80611       20.30777       10.86406        0.417
       13.77820       30.48937       14.48858       -0.834
       13.74525       31.08983       15.23329        0.417
       12.90676       30.09439       14.46004        0.417
       24.15949       12.86983       24.06615       -0.834
       24.75945       12.48636       24.70586        0.417
       24.11310       12.22251       23.36254        0.417
       17.02148       14.17758       24.36400       -0.834
       17.47085       13.62976       25.00757        0.417
       16.12384       13.84544       24.35111        0.417
        9.13920       10.48732       28.44347       -0.834
        9.22153       11.43174       28.31109        0.417
        9.77137       10.10377       27.83562        0.417
       20.02776       14.84159        6.29415       -0.834
       19.46296       14.07595        6.39908        0.417
       20.91706       14.49644        6.37317        0.417
       20.88818       24.32019       10.61024       -0.834
       20.09752       24.85124       10.70552        0.417
       21.35036       24.42657       11.44169        0.417
       18.35897        2.51395       11.58800       -0.834
       17.69047        1.99716       12.03775        0.417
       18.37884        3.34529       12.06203        0.417
       16.85038       26.93043        9.25540       -0.834
       16.07250       27.48191        9.17171        0.417
       16.58252       26.08236        8.90147        0.417
       13.16248       21.53806       17.15787       -0.834
       12.88445       20.62333       17.20469        0.417
       13.68399       21.67120       17.94942        0.417
       16.07178       22.21251       27.30131       -0.834
       15.62417       22.18089       26.45581        0.417
       15.66019       22.94265       27.76361        0.417
       14.07002       16.30017        5.40702       -0.834
       13.55109       16.59400        4.65828        0.417
       13.86627       15.36854        5.48942        0.417
       21.10560       21.91276       21.60104       -0.834
       20.48160       21.22313       21.37461        0.417
       21.92594       21.44872       21.76818        0.417
       16.88435       23.86384       18.79839       -0.834
       16.46182       24.45656       19.42000        0.417
       17.74060       23.68101       19.18520        0.417
       20.84209       10.65388       14.76176       -0.834
       20.63171       11.57811       14.89509        0.417
       20.35663       10.19586       15.44790        0.417
       17.29595       18.47585       31.05027       -0.834
       17.13436       19.02469       30.28288        0.417
       16.45480       18.05367       31.22479        0.417
       11.37830       11.74543       12.20146       -0.834
       11.94985       11.80835       12.96670        0.417
       11.41337       12.61530       11.80356        0.417
        4.40202       13.12034       22.71314       -0.834
        3.80973       12.88877       23.42854        0.417
        4.36103       14.07557       22.66732        0.417
        3.03068       17.63335       19.94357       -0.834
        3.94469       17.89921       19.84286        0.417
        3.07009       16.83091       20.46392        0.417
        3.41241       14.23116       19.32092       -0.834
        4.20419       14.51307       19.77901        0.417
        2.73619       14.21503       19.99820        0.417
       14.28795       22.57755       24.95348       -0.834
       13.46484       22.75902       24.49982        0.417
       14.57427       21.73412       24.60295        0.417
       13.12096       25.06716       17.72775       -0.834
       12.48393       25.71975       17.43696        0.417
       12.96818       24.98551       18.66915        0.417
       17.92845        9.40810       12.52994       -0.834
       18.55853        9.61647       11.84015        0.417
       18.10453       10.05010       13.21773        0.417
       26.40729       15.48340       10.62993       -0.834
       26.93886       14.69789       10.50094        0.417
       25.87756       15.54785        9.83529        0.417
        5.24680       13.06006       10.58216       -0.834
        5.77042       12.26763       10.70092        0.417
        5.09071       13.10543        9.63886        0.417
       24.95831       13.92617       14.63918       -0.834
       25.84020       13.76141       14.97288        0.417
       24.86234       13.31958       13.90496        0.417
       26.64553       21.96190       11.96470       -0.834
       26.25100       22.79399       12.22584        0.417
       25.99802       21.30145       12.21122        0.417
       20.40283        4.77357       23.74100       -0.834
       20.17042        5.68184       23.54797        0.417
       19.63736        4.42128       24.19506        0.417
       22.99236       16.51616        4.61182       -0.834
       22.11663       16.88118        4.48494        0.417
       22.85854       15.56839        4.61922        0.417
       29.86026       12.54451       18.25139       -0.834
       30.55545       13.16863       18.04302        0.417
       29.70280       12.07782       17.43064        0.417
       22.26791        5.00366       11.94093       -0.834
       22.52277        4.19763       11.49192        0.417
       22.31937        4.78641       12.87173        0.417
       16.29054        8.54781       22.43646       -0.834
       17.13834        8.99090       22.40263        0.417
       15.65782        9.22088       22.18571        0.417
       15.37212       29.64982       22.08593       -0.834
       15.46195       30.38045       21.47411        0.417
       16.22724       29.58652       22.51135        0.417
       17.21127        6.73749       12.89135       -0.834
       17.49221        7.63150       13.08637        0.417
       18.02496        6.23594       12.84044        0.417
       20.42241       27.68458       18.55931       -0.834
       19.85191       28.36762       18.20686        0.417
       20.35744       26.96817       17.92783        0.417
        8.08614       19.30956       28.69382       -0.834
        8.65723       19.34868       29.46099        0.417
        7.91685       18.37589       28.56802        0.417
       19.31764       20.10480       20.94731       -0.834
       19.03949       19.29430       21.37386        0.417
       19.13265       19.96311       20.01890        0.417
       28.60942       13.37723       23.68410       -0.834
       29.05891       13.34495       22.83962        0.417
       28.35417       14.29421       23.78521        0.417
        6.05488       17.41267       16.88598       -0.834
        5.64192       16.81490       16.26280        0.417
        5.99755       18.27202       16.46829        0.417
       18.15134       15.47399       10.79538       -0.834
       18.93914       14.93461       10.86365        0.417
       17.77581       15.24384        9.94553        0.417
       23.96593        6.49277       21.29811       -0.834
       23.49432        6.90261       22.02326        0.417
       24.05845        7.18915       20.64793        0.417
       28.08162       18.38138       13.59595       -0.834
       28.64046       17.77193       14.07815        0.417
       28.56351       19.20837       13.60631        0.417
       19.01605        9.15717        5.44127       -0.834
       19.34014        8.97743        6.32382        0.417
       18.25196        8.58860        5.34578        0.417
       10.87598       16.34391       26.87885       -0.834
       10.22860       15.70831       26.57365        0.417
       11.03099       16.91038       26.12299        0.417
        5.02035       18.57690       13.75576       -0.834
        5.90512       18.94184       13.77066        0.417
        4.57264       19.06120       13.06205        0.417
       14.21637        4.61425        7.60073       -0.834
       13.77805        3.85499        7.21649        0.417
       14.15991        4.47127        8.54551        0.417
        6.91381       15.90662       27.36396       -0.834
        6.15124       16.27469       27.81032        0.417
        6.60354       15.71221       26.47955        0.417
       19.53122       23.25525       19.18301       -0.834
       20.09164       23.28968       18.40778        0.417
       20.01521       22.71209       19.80508        0.417
       11.33318       25.57880       23.07220       -0.834
       10.72292       25.03027       23.56507        0.417
       11.82978       26.04769       23.74285        0.417
        6.25934       13.55175       17.72018       -0.834
        5.62391       12.83651       17.69022        0.417
        5.72577       14.34482       17.77081        0.417
       24.87524        3.83473       21.60527       -0.834
       24.37035        4.57799       21.27529        0.417
       25.44069        4.20957       22.28054        0.417
       23.15632        7.62009       23.84866       -0.834
       23.04712        8.26304       24.54932        0.417
       23.87881        7.06524       24.14256        0.417
       15.65293        6.48343       10.47002       -0.834
       16.11806        6.43415       11.30517        0.417
       15.15273        5.66854       10.42547        0.417
       16.88527        7.57653       19.54270       -0.834
       16.95808        8.33801       18.96730        0.417
       16.85066        7.94515       20.42539        0.417
       18.61082       17.28750       28.05502       -0.834
       18.92582       17.36410       28.95565        0.417
       19.39337       17.08132       27.54380        0.417
       12.71570       23.53096       27.15527       -0.834
       13.04883       22.97686       26.44942        0.417
       13.46940       24.05624       27.42408        0.417
       19.28930       22.85586       29.50044       -0.834
       18.93303       22.28213       30.17878        0.417
       19.12600       22.38883       28.68102        0.417
       20.39500       18.17551        9.71516       -0.834
       20.68347       17.33329       10.06686        0.417
       19.63613       18.41119       10.24882        0.417
       11.76506        2.61536       11.88978       -0.834
       12.46543        2.27130       11.33541        0.417
       12.19322        2.81213       12.72296        0.417
       24.66370       25.47071        9.05140       -0.834
       23.94233       24.88799        8.81413        0.417
       24.27839       26.34684        9.03928        0.417
       18.83525        4.48306       13.68209       -0.834
       18.32588        4.34075       14.47991        0.417
       19.73446        4.26804       13.92992        0.417
       25.17969       19.38082        9.48219       -0.834
       25.11636       18.73260        8.78074        0.417
       25.17618       18.86383       10.28776        0.417
       20.66471       26.93417       23.22340       -0.834
       19.98025       26.36248       22.87565        0.417
       21.48301       26.54008       22.92123        0.417
        3.13795       18.59112       11.82169       -0.834
        3.25952       18.11171       11.00217        0.417
        2.71926       19.41120       11.56016        0.417
       28.20272       18.96573        8.19620       -0.834
       28.59631       19.81314        7.98831        0.417
       27.63164       19.14324        8.94359        0.417
       10.59869       22.54070        9.24827       -0.834
       10.16720       22.93129       10.00819        0.417
       11.22235       21.91725        9.62054        0.417
        5.24053       23.13849       20.37806       -0.834
        4.29892       23.22167       20.52864        0.417
        5.39444       23.60566       19.55690        0.417
        9.80067       13.47198        9.13417       -0.834
        9.67170       12.66586        8.63440        0.417
       10.68215       13.39021        9.49823        0.417
        8.15051       22.24879       23.80456       -0.834
        8.98696       22.24887       24.26994        0.417
        7.50189       22.03982       24.47677        0.417
       24.57933       24.87249       24.15352       -0.834
       24.29372       24.07413       23.70936        0.417
       24.30640       24.75187       25.06302        0.417
       14.92158       25.28676        5.77370       -0.834
       15.16525       24.41716        5.45643        0.417
       14.74893       25.16207        6.70690        0.417
        9.42540       19.79930       20.29960       -0.834
        8.98745       20.64134       20.17551        0.417
        9.05690       19.45471       21.11305        0.417
       17.11426       10.04363        8.56123       -0.834
       16.41873        9.40902        8.73366        0.417
       17.51863        9.74146        7.74796        0.417
       17.22188       20.24114       28.98841       -0.834
       17.95639       19.92497       28.46232        0.417
       16.84344       20.95122       28.46995        0.417
       12.06709       16.91146       10.12370       -0.834
       12.32156       16.96462        9.20248        0.417
       12.89601       16.85107       10.59855        0.417
        5.09393       18.10736       23.38473       -0.834
        5.35328       18.59074       22.60032        0.417
        4.72200       18.77219       23.96431        0.417
       15.33108       10.41645       11.81817       -0.834
       15.07308       10.27396       12.72886        0.417
       16.26237       10.19642       11.79534        0.417
       24.76051        5.33896       17.54282       -0.834
       24.99048        5.91282       18.27360        0.417
       24.05539        4.78817       17.88291        0.417
        6.97942       18.14173        7.39388       -0.834
        7.34006       18.79290        7.99568        0.417
        7.05417       18.54630        6.52961        0.417
        5.49584       10.03173       13.07081       -0.834
        6.07143       10.37566       12.38770        0.417
        5.61700        9.08304       13.03155        0.417
       30.99134       19.71522       18.29785       -0.834
       30.71523       18.91116       17.85800        0.417
       30.17968       20.09652       18.63258        0.417
       14.33113        4.08849       10.25487       -0.834
       13.88193        4.47857       11.00473        0.417
       14.22475        3.14492       10.37565        0.417
       22.95915       10.39204       20.38002       -0.834
       22.03459       10.62770       20.45678        0.417
       22.98453        9.74711       19.67316        0.417
       19.60346       10.10236       17.05744       -0.834
       19.81762        9.32608       17.57489        0.417
       18.74161       10.37205       17.37479        0.417
       16.36185       31.20549       17.41113       -0.834
       15.46847       31.44173       17.16152        0.417
       16.55263       31.75659       18.17016        0.417
       22.01802       11.22804        8.18240       -0.834