%Nproc=32
%Mem=120Gb
%chk=temp.chk
#p cam-b3lyp/6-31+G(d,p) nosymm charge Freq 

Calculation for S0 with freq for abs spect

0  1
 C         17.61823       15.74585       17.32545
 C         17.14255       17.86922       16.22624
 C         15.92448       17.39450       15.94329
 C         15.43219       16.02793       16.29748
 N         16.40132       15.25772       16.94050
 H         17.60406       18.84084       16.02642
 H         15.26278       18.02989       15.31719
 O         14.33923       15.60540       16.01309
 O         18.45140       15.03835       17.84424
 N         17.96470       16.98306       16.92355
 H         18.82219       17.37482       17.30654
 H         16.29543       14.32058       17.33240
 O         11.47206       17.52537       17.59523
 H         12.30063       17.86121       17.25329
 H         10.88192       17.53003       16.84161
 O         18.68384       14.03173       14.52071
 H         17.88303       13.91235       15.03128
 H         18.59192       13.42628       13.78504
 O         20.23725       19.26944       13.93558
 H         20.35286       18.33589       13.75857
 H         19.30492       19.42807       13.78779
 O         17.34404       19.63604       13.63157
 H         17.39845       20.14796       12.82459
 H         17.06246       20.26480       14.29610
 O         14.52807       18.13763       19.08006
 H         15.40595       18.51833       19.05514
 H         14.03216       18.63523       18.42990
 O         19.47367       17.82598       20.81253
 H         19.33384       18.29626       19.99063
 H         19.16136       16.93831       20.63725
 O         13.30101       19.81429       17.16571
 H         13.01263       20.48820       17.78126
 H         13.52005       20.29581       16.36796
 O         12.50015       13.91449       14.94937
 H         12.95073       14.58549       15.46218
 H         13.20412       13.42158       14.52783
 O         14.83041       12.39444       14.98187
 H         15.64111       12.01196       14.64614
 H         14.93730       12.38667       15.93305
 O         15.22046       15.56312       20.13192
 H         14.92034       16.37217       19.71768
 H         14.59172       14.90003       19.84692
 O         19.77688       16.43029       13.86789
 H         19.17545       15.71800       14.08506
 H         20.63419       16.11670       14.15583
 O         19.52890       18.77634       18.30371
 H         20.44345       18.99309       18.48492
 H         19.17110       19.56579       17.89753
 O         15.44731       12.63618       17.60349
 H         15.38879       11.72133       17.87890
 H         14.81112       13.09351       18.15335
 O         18.34118       20.66817       16.93083
 H         17.93580       21.24208       17.58085
 H         18.31040       21.16924       16.11584
 O         20.93417       13.67397       17.35093
 H         20.42407       14.47649       17.24144
 H         20.38705       13.11529       17.90299
 O         18.02465       15.48069       20.52782
 H         18.22207       14.82770       19.85636
 H         17.07574       15.59631       20.47851
 O         14.33378       19.05545       12.49128
 H         14.31982       18.12106       12.69855
 H         14.98692       19.13738       11.79634
 O         14.30456       16.27640       13.26835
 H         14.08250       15.99656       14.15639
 H         13.48497       16.19826       12.78010
 O         16.76002       20.09935       20.16304
 H         17.62355       20.30247       19.80345
 H         16.27143       20.91936       20.09176
 
       23.18553       11.38283       15.64206       -0.834
       23.23047       12.32760       15.49504        0.417
       23.96995       11.03621       15.21691        0.417
       23.93882       20.89750       21.44109       -0.834
       24.52599       21.43658       20.91114        0.417
       24.36790       20.04276       21.48051        0.417
       23.07801       12.26448       27.28401       -0.834
       22.57434       12.37935       28.08983        0.417
       23.39768       13.14187       27.07368        0.417
       21.31629       16.89120        3.20002       -0.834
       21.99941       16.22374        3.13620        0.417
       21.46174       17.30278        4.05188        0.417
       19.07668        1.95259       18.52039       -0.834
       19.52313        2.79306       18.62298        0.417
       18.44827        1.92500       19.24190        0.417
       15.36669        9.17576       12.15780       -0.834
       14.49656        9.03173       12.52978        0.417
       15.80140        8.32586       12.22804        0.417
       17.24584       31.37885       21.11062       -0.834
       17.54314       30.47111       21.04837        0.417
       18.04565       31.88378       21.25755        0.417
        7.68250       11.18465       11.10164       -0.834
        7.36237       11.62047       10.31182        0.417
        8.21139       11.84837       11.54434        0.417
       22.04487       26.84200       24.22654       -0.834
       21.47029       26.12385       24.49175        0.417
       22.63708       26.45086       23.58426        0.417
       24.77782        6.96510       14.11692       -0.834
       25.66298        7.32225       14.04494        0.417
       24.89851        6.10304       14.51506        0.417
       20.19178        9.21924       10.87935       -0.834
       20.16126        8.59088       11.60078        0.417
       20.70384        9.95224       11.22103        0.417
       18.03769       12.96686       12.24718       -0.834
       17.51113       12.17673       12.36828        0.417
       17.43058       13.60465       11.87185        0.417
       27.44091       22.48056       21.70526       -0.834
       26.74718       22.91184       21.20628        0.417
       27.67085       21.71261       21.18218        0.417
       22.99658       20.89547       24.10136       -0.834
       23.56991       20.20942       24.44322        0.417
       22.94074       20.71594       23.16281        0.417
       14.00334       15.17483       25.40629       -0.834
       14.78217       15.31712       25.94425        0.417
       14.34384       15.04070       24.52181        0.417
       18.53001       16.91936       10.93000       -0.834
       18.93968       16.83450       11.79093        0.417
       18.44067       16.01922       10.61696        0.417
       17.76722        7.09226       24.89656       -0.834
       18.42186        6.58120       24.42064        0.417
       17.99757        8.00385       24.71717        0.417
        3.81273       10.02723       22.62539       -0.834
        4.55387        9.53621       22.98014        0.417
        4.16127       10.45680       21.84423        0.417
        8.31888       23.43618       20.27777       -0.834
        7.44783       23.75739       20.04466        0.417
        8.80808       24.22275       20.51906        0.417
       15.96786       19.85801       10.33470       -0.834
       15.84693       20.57634        9.71373        0.417
       16.90852       19.84956       10.51167        0.417
       18.69240       11.73215       23.56925       -0.834
       18.85109       11.42127       24.46055        0.417
       18.10228       12.47809       23.67677        0.417
       27.76891       16.76105        8.96710       -0.834
       27.06842       16.63844        9.60781        0.417
       27.88976       15.89616        8.57519        0.417
       13.51395       13.58820       19.41527       -0.834
       12.73745       14.00279       19.03923        0.417
       13.18058       12.80209       19.84784        0.417
        9.76363        9.56717       13.21578       -0.834
        9.88761       10.42309       12.80560        0.417
        8.81387        9.45375       13.25206        0.417
       12.57355       20.80139       19.75057       -0.834
       13.44298       21.19423       19.82802        0.417
       11.98464       21.44108       20.15084        0.417
       11.42297       27.96510       19.77165       -0.834
       12.15683       27.75300       20.34845        0.417
       10.82141       28.46567       20.32283        0.417
       22.89756       18.14329       25.21106       -0.834
       22.30881       17.67855       25.80571        0.417
       22.56284       17.94312       24.33692        0.417
        6.95280        9.60834       13.16112       -0.834
        6.81456       10.09867       13.97149        0.417
        6.99398       10.27869       12.47908        0.417
       26.76988       11.55115       21.73183       -0.834
       27.44840       11.37798       21.07926        0.417
       26.01492       11.84366       21.22125        0.417
       20.12962       22.00269       20.28051       -0.834
       20.26089       22.80387       19.77344        0.417
       19.38408       22.19751       20.84835        0.417
       29.61550       22.99763       14.92664       -0.834
       29.21118       23.00396       15.79423        0.417
       29.52592       22.09306       14.62672        0.417
       16.34083       11.13861       30.22182       -0.834
       16.08845       10.22151       30.32890        0.417
       17.17903       11.21171       30.67823        0.417
       25.12882       13.83157       20.93827       -0.834
       25.10677       13.65709       19.99736        0.417
       25.86038       14.43815       21.05278        0.417
        4.34053       10.47134       10.63678       -0.834
        4.91295       10.82228        9.95457        0.417
        4.37513        9.52261       10.51449        0.417
       23.30517        5.12605       18.22908       -0.834
       23.51515        4.21931       18.00560        0.417
       23.34633        5.15332       19.18501        0.417
       12.73980        3.09024       13.86788       -0.834
       11.98097        3.32703       13.33465        0.417
       12.43793        3.18673       14.77110        0.417
       11.03895        4.53449       12.33876       -0.834
       10.08389        4.55251       12.40027        0.417
       11.31720        5.38645       12.67487        0.417
       16.38734       16.42757       26.18733       -0.834
       17.11635       16.26564       25.58853        0.417
       16.18725       17.35698       26.07601        0.417
       17.41237       23.12917       18.51373       -0.834
       16.66291       23.60717       18.15868        0.417
       18.15455       23.41772       17.98257        0.417
       25.29184       21.43574       16.77147       -0.834
       24.87325       21.54110       15.91713        0.417
       24.90709       20.63606       17.13024        0.417
       14.82133       17.91367        8.71837       -0.834
       15.48371       17.33126        8.34651        0.417
       15.32406       18.60973        9.14145        0.417
        9.50929       10.21736       17.29501       -0.834
        9.81219       10.97334       17.79798        0.417
        8.64207       10.47113       16.97914        0.417
       11.83653       29.94701       13.04239       -0.834
       11.47077       30.81936       13.18884        0.417
       12.04272       29.92702       12.10788        0.417
        4.06970       14.62051       10.40691       -0.834
        3.80791       15.23917        9.72503        0.417
        4.65275       15.12304       10.97589        0.417
       13.79118        3.60205       20.21536       -0.834
       13.23768        3.99294       19.53928        0.417
       13.30567        3.73503       21.02950        0.417
       20.64385       26.00004       13.33619       -0.834
       20.61790       25.28949       12.69535        0.417
       20.64604       26.79887       12.80884        0.417
        3.08645       20.79157       19.60802       -0.834
        3.91353       20.35277       19.40896        0.417
        2.65363       20.88428       18.75931        0.417
        5.76850       14.53410       20.12206       -0.834
        6.54675       14.97950       19.78713        0.417
        5.17905       15.24263       20.38046        0.417
       24.51869        7.15143        9.15423       -0.834
       23.58782        7.25883        9.34961        0.417
       24.96680        7.47383        9.93621        0.417
       15.45703       25.15579       18.56763       -0.834
       15.39376       25.23748       19.51923        0.417
       14.54832       25.13712       18.26741        0.417
        5.28748       17.03445       15.32082       -0.834
        4.72020       16.48227       15.85888        0.417
        6.04705       17.21102       15.87590        0.417
       12.74134       20.79949       11.30810       -0.834
       12.97578       20.01452       11.80317        0.417
       11.86005       21.01939       11.61009        0.417
       12.32344       12.85693       27.83380       -0.834
       12.50820       11.93351       28.00526        0.417
       13.13666       13.30983       28.05692        0.417
       20.27503       24.56518       18.48346       -0.834
       19.86087       24.55731       17.62054        0.417
       20.96069       25.22953       18.41453        0.417
       11.77769       22.75316       14.63121       -0.834
       11.11105       23.19473       14.10505        0.417
       11.58920       23.02034       15.53083        0.417
       22.13559       10.79848        7.57322       -0.834
       21.57675       11.33756        7.01347        0.417
       22.96424       10.73786        7.09793        0.417
       26.46610        7.59788       19.81431       -0.834
       27.39168        7.70353       19.59439        0.417
       26.03365        8.34265       19.39654        0.417
       15.48395       22.69478       11.69669       -0.834
       15.27538       23.40831       12.29968        0.417
       14.72825       22.10944       11.74698        0.417
        2.38439       20.59855       17.00139       -0.834
        2.51427       19.81809       16.46265        0.417
        1.80158       21.15358       16.48321        0.417
        7.08439       17.15881       17.32436       -0.834
        7.22076       17.33892       18.25452        0.417
        7.44037       16.27967       17.19544        0.417
       21.16036       13.25939       25.64424       -0.834
       21.79389       12.88825       26.25834        0.417
       20.85580       12.51050       25.13176        0.417
       26.79147       24.81192        9.34827       -0.834
       27.74136       24.78224        9.46258        0.417
       26.50127       25.51267        9.93219        0.417
       19.13112       18.55607       23.66941       -0.834
       19.29698       17.96908       22.93173        0.417
       18.78111       19.35187       23.26887        0.417
        6.86036       11.06082       16.47959       -0.834
        6.62937       11.49674       15.65931        0.417
        6.41030       11.56746       17.15561        0.417
        7.21026       21.66687        9.83607       -0.834
        7.31992       21.35648       10.73488        0.417
        8.08480       21.95332        9.57272        0.417
        5.22290       12.39907       18.58009       -0.834
        4.61740       11.95794       19.17591        0.417
        5.48958       13.18897       19.05039        0.417
       14.05117       12.81699       11.95830       -0.834
       13.67396       12.37190       12.71714        0.417
       14.62922       13.48170       12.33281        0.417
       28.16342       20.98434       17.24292       -0.834
       27.22915       20.93771       17.03997        0.417
       28.31377       21.90148       17.47199        0.417
       11.36144       21.60898       23.86709       -0.834
       11.62165       20.68821       23.89393        0.417
       10.46627       21.61537       24.20600        0.417
       30.19248       17.84327       10.43871       -0.834
       30.13257       17.06824       10.99725        0.417
       29.68691       17.61629        9.65825        0.417
       28.18614       17.63718       26.08021       -0.834
       27.27699       17.90854       25.95351        0.417
       28.12433       16.75879       26.45550        0.417
       13.96618        9.11092        4.20349       -0.834
       13.04996        9.26138        4.43618        0.417
       14.45930        9.69318        4.78145        0.417
       17.86712       28.71698       13.17199       -0.834
       17.89237       28.46634       14.09545        0.417
       16.93657       28.71350       12.94773        0.417
       15.26944       16.69119       30.74850       -0.834
       14.67613       17.40844       30.97157        0.417
       15.26142       16.12440       31.51981        0.417
       27.07555       25.27264       22.15405       -0.834
       27.17734       25.50792       23.07628        0.417
       27.63377       24.50354       22.03956        0.417
       25.82281       19.46191       28.23896       -0.834
       26.19459       19.63761       29.10333        0.417
       25.46360       20.30306       27.95672        0.417
       17.42978        7.16482       20.51599       -0.834
       17.72635        7.71759       21.23899        0.417
       16.51579        7.41538       20.38161        0.417
       16.65155        4.09678       10.03244       -0.834
       17.44893        4.24147        9.52305        0.417
       16.61516        4.83802       10.63698        0.417
       11.25796       24.61773       27.86032       -0.834
       11.89068       24.09395       27.36883        0.417
       11.79319       25.23577       28.35809        0.417
       23.31173        9.45171       23.57906       -0.834
       22.57285        9.45264       24.18758        0.417
       23.36569       10.35456       23.26571        0.417
       15.61688       11.08150       10.21663       -0.834
       15.31331       10.42054       10.83889        0.417
       15.16577       11.88375       10.47955        0.417
       22.39954       22.68355       15.24272       -0.834
       22.24187       22.54747       14.30846        0.417
       21.90379       23.47380       15.45716        0.417
       21.57822       14.87204       23.13797       -0.834
       21.62853       14.53929       24.03406        0.417
       21.38958       14.09943       22.60531        0.417
        8.40520       23.03571        6.74847       -0.834
        7.78750       22.54696        6.20460        0.417
        9.12467       23.25518        6.15650        0.417
        6.55127       14.66634       23.08392       -0.834
        7.06915       14.76523       22.28502        0.417
        7.20060       14.59542       23.78362        0.417
       27.44288       15.27805       21.13990       -0.834
       27.40561       16.23275       21.19817        0.417
       27.77685       14.99845       21.99226        0.417
       26.80932        7.06673       17.03589       -0.834
       27.47176        6.43474       17.31515        0.417
       26.19346        7.10795       17.76749        0.417
       12.74138       24.99845       20.60891       -0.834
       11.81553       24.75553       20.60485        0.417
       13.06213       24.70735       21.46250        0.417
       17.22855       22.73286       25.64776       -0.834
       16.78438       22.78504       26.49406        0.417
       18.14581       22.92133       25.84612        0.417
        6.11652        8.78647       19.71997       -0.834
        6.12751        8.51602       20.63810        0.417
        5.61908        9.60425       19.71661        0.417
       15.37935       23.95051        6.28268       -0.834
       15.84904       23.19658        6.63934        0.417
       14.62752       23.57144        5.82740        0.417
       13.04324       10.32099       28.83376       -0.834
       13.02849       10.40760       29.78692        0.417
       12.23151        9.86000       28.62208        0.417
       17.67958       25.67169        5.85256       -0.834
       18.40726       25.05125        5.81040        0.417
       16.89682       25.12170        5.88462        0.417
       28.21905       14.21756        8.31210       -0.834
       29.05880       14.67313        8.25280        0.417
       28.42998       13.37758        8.71973        0.417
       18.77698       20.47846       27.66695       -0.834
       17.91187       20.37018       27.27187        0.417
       19.38353       20.45424       26.92686        0.417
       18.82142       16.18355       25.03095       -0.834
       19.19177       17.04084       24.82090        0.417
       19.35294       15.86470       25.76038        0.417
       10.18516       16.66309       21.90869       -0.834
       10.61648       16.18552       22.61730        0.417
       10.88077       17.19135       21.51714        0.417
        9.43532       18.49465       28.13518       -0.834
        9.99234       19.05149       27.59122        0.417
        9.11971       17.81549       27.53905        0.417
       19.22361        7.16205       18.62196       -0.834
       18.98837        8.01448       18.25555        0.417
       18.61924        7.04055       19.35423        0.417
       23.26980       11.67127       21.94008       -0.834
       23.67555       12.50875       21.71598        0.417
       22.34929       11.88408       22.09375        0.417
       18.62841        8.83695       22.45070       -0.834
       19.29391        9.02597       21.78918        0.417
       18.49278        9.67125       22.89989        0.417
       11.39177       17.93154        5.05649       -0.834
       11.90309       17.43046        4.42112        0.417
       12.03343       18.22402        5.70376        0.417
       20.51085       12.74641       21.85789       -0.834
       19.75091       12.50264       22.38637        0.417
       20.25283       12.54367       20.95869        0.417
        4.25161       19.20215       10.05482       -0.834
        3.74109       19.33622        9.25630        0.417
        4.64976       20.05459       10.23107        0.417
       16.82612       12.18943        7.87645       -0.834
       16.70653       11.94235        8.79345        0.417
       17.70907       12.55728        7.84020        0.417
       22.10544       22.57645       12.55269       -0.834
       22.83763       22.79788       11.97727        0.417
       21.63832       21.88088       12.08985        0.417
        8.32630        4.61382       12.23623       -0.834
        7.75398        5.33335       12.50262        0.417
        7.73769        3.86702       12.12646        0.417
       12.43105       26.40173       11.18468       -0.834
       12.85676       26.51362       10.33469        0.417
       12.14183       27.28172       11.42592        0.417
       22.63637       17.21391        7.85335       -0.834
       22.11582       16.74735        8.50726        0.417
       22.73131       16.59075        7.13301        0.417
       21.71827        6.34530       26.23513       -0.834
       22.34456        6.81971       25.68839        0.417
       20.90126        6.36537       25.73682        0.417
        7.67275       19.58277       20.52205       -0.834
        8.58101       19.56141       20.22066        0.417
        7.69266       20.13268       21.30527        0.417
       21.48893       13.79111        3.28322       -0.834
       20.69102       13.53435        3.74544        0.417
       21.37660       13.44269        2.39879        0.417
       29.72658       13.77824       19.90939       -0.834
       29.16337       13.17492       19.42458        0.417
       29.13493       14.46598       20.21468        0.417
       18.48200       22.04923       12.00001       -0.834
       18.45509       21.65536       11.12802        0.417
       18.27449       22.97204       11.85302        0.417
       16.71440       24.97437       13.93000       -0.834
       16.77455       25.44399       14.76192        0.417
       15.77962       24.96967       13.72412        0.417
       14.40298       25.82777        8.33277       -0.834
       14.59368       26.58430        7.77822        0.417
       14.99683       25.14525        8.02012        0.417
       14.32460       27.38804       23.88414       -0.834
       14.28556       27.87242       23.05946        0.417
       15.06090       27.77690       24.35623        0.417
       21.91460       19.26375        9.97333       -0.834
       22.31939       18.50596       10.39538        0.417
       21.86705       19.02580        9.04740        0.417
       30.31337       20.70142       13.86406       -0.834
       31.11815       20.19468       13.97254        0.417
       30.00459       20.47646       12.98640        0.417
       23.01196       29.63861       13.08684       -0.834
       22.27052       29.18154       12.68986        0.417
       22.65479       30.48379       13.35947        0.417
       11.16897        9.21003       22.94328       -0.834
       10.40923        9.45119       22.41332        0.417
       10.84268        9.20708       23.84315        0.417
       15.02433       29.99034       10.03507       -0.834
       15.88591       29.76867        9.68184        0.417
       14.87141       30.89044        9.74755        0.417
       10.49679       20.45972        4.65463       -0.834
       10.96234       20.11256        3.89373        0.417
       10.18648       19.68346        5.12085        0.417
       18.99728       19.09997       30.23870       -0.834
       18.11139       19.28630       30.54967        0.417
       19.11740       19.68571       29.49123        0.417
       10.58085        3.49531       18.90373       -0.834
       10.50736        4.09775       19.64393        0.417
        9.94913        2.80205       19.09490        0.417
       16.05275       21.15228        7.19463       -0.834
       15.51073       21.01413        6.41787        0.417
       16.73797       20.48700        7.13054        0.417
       15.01050        6.47035       24.34396       -0.834
       15.96285        6.56620       24.33510        0.417
       14.86487        5.53149       24.46045        0.417
        9.33453       26.52324       11.14237       -0.834
        9.31003       27.47686       11.06330        0.417
       10.25227       26.29382       10.99621        0.417
       17.72887        8.89547        5.28318       -0.834
       17.09278        8.35451        5.75113        0.417
       18.54970        8.76588        5.75822        0.417
       12.22302       19.20732       26.21624       -0.834
       12.28620       18.28115       26.44955        0.417
       12.25263       19.21637       25.25954        0.417
       24.26207       27.45027       12.26609       -0.834
       23.95361       28.16438       12.82388        0.417
       23.95310       27.67972       11.38966        0.417
       21.98068       27.61060       15.60936       -0.834
       21.05649       27.65232       15.85504        0.417
       21.98806       27.12490       14.78457        0.417
       15.99159       19.56668       22.81372       -0.834
       16.21156       19.34840       21.90807        0.417
       16.14649       20.50908       22.87785        0.417
       13.52694        7.06249       13.83551       -0.834
       14.02444        6.25105       13.93699        0.417
       12.65113        6.84886       14.15731        0.417
       17.82521       29.99953       16.06904       -0.834
       16.99494       30.21664       16.49301        0.417
       17.86267       30.57563       15.30554        0.417
       28.91037       11.95338        9.54861       -0.834
       28.03224       11.74159        9.23197        0.417
       29.49632       11.43988        8.99254        0.417
       18.86782        4.95704        8.02153       -0.834
       18.78381        5.62871        8.69831        0.417
       19.81114        4.81853        7.93667        0.417
        5.78800       23.95643       10.06609       -0.834
        5.52964       23.79297       10.97316        0.417
        5.80240       23.08943        9.66071        0.417
       18.18136       16.26888       31.79024       -0.834
       17.48281       15.64707       31.99427        0.417
       17.73663       16.99380       31.35100        0.417
       26.05350       27.32922       20.20648       -0.834
       26.30821       26.66565       20.84760        0.417
       26.36226       26.98440       19.36862        0.417
       12.13157        9.82071        7.59630       -0.834
       13.02816        9.88866        7.26807        0.417
       12.19653        9.23810        8.35299        0.417
       14.71767       10.13863        6.90477       -0.834
       15.17940       10.95124        7.11140        0.417
       15.41219        9.48902        6.79579        0.417
        2.84604       18.02912       12.10747       -0.834
        1.95081       18.22919       11.83405        0.417
        3.39164       18.32822       11.38009        0.417
        9.23543       25.67455       21.43092       -0.834
       10.07454       25.97339       21.78139        0.417
        8.60731       25.84697       22.13233        0.417
       23.95849       12.36832        4.51959       -0.834
       24.33331       12.37831        3.63889        0.417
       23.03370       12.57809        4.38921        0.417
       15.36471       10.01713       18.59441       -0.834
       15.21545        9.66829       19.47320        0.417
       14.90812        9.40833       18.01379        0.417
       10.80257       11.59142        3.93030       -0.834
       11.60240       11.95871        4.30659        0.417
       10.68688       12.06301        3.10540        0.417
       20.76886       27.70232       21.38713       -0.834
       21.08009       26.84927       21.68992        0.417
       21.41017       27.97226       20.72979        0.417
       24.88155       23.94286       24.92569       -0.834
       24.53269       24.47543       24.21092        0.417
       25.78798       23.76678       24.67346        0.417