%Nproc=32
%Mem=120Gb
%chk=temp.chk
#p cam-b3lyp/6-31+G(d,p) nosymm charge Freq 

Calculation for S0 with freq for abs spect

0  1
 C         16.63599       17.61080       17.55369
 C         17.80526       16.30082       15.90614
 C         16.75007       15.47194       15.62341
 C         15.50097       15.66711       16.29537
 N         15.56285       16.74150       17.26858
 H         18.73902       16.18298       15.40665
 H         16.72137       14.76874       14.84114
 O         14.51346       14.99474       16.20120
 O         16.62220       18.48374       18.41134
 N         17.79053       17.27200       16.84516
 H         18.67343       17.72626       17.12998
 H         14.65115       17.07638       17.56883
 O         20.39017       16.54971       18.01334
 H         21.16446       16.02451       17.81121
 H         20.31523       16.50968       18.96676
 O         19.94584       15.67327       13.32399
 H         20.31097       14.78847       13.33052
 H         20.56986       16.19414       13.82949
 O         12.70496       18.01239       17.67466
 H         12.56990       17.86071       16.73926
 H         11.93931       17.62017       18.09439
 O         15.66950       18.44745       13.15258
 H         16.56658       18.25793       13.42749
 H         15.23207       17.59606       13.15744
 O         15.60712       15.39950       20.32534
 H         15.91007       16.11334       20.88649
 H         16.40399       15.05931       19.91853
 O         12.54920       12.65031       15.40089
 H         13.47068       12.90772       15.42990
 H         12.29153       12.78311       14.48864
 O         18.19247       20.19638       14.65316
 H         18.84833       19.62087       14.25963
 H         17.55548       20.34716       13.95477
 O         18.22563       17.19977       20.15538
 H         18.22913       16.33915       19.73638
 H         17.67114       17.73899       19.59144
 O         12.63227       15.28338       20.36786
 H         12.53882       15.97958       21.01810
 H         13.57735       15.19681       20.24311
 O         18.43637       17.88768       13.02535
 H         18.14458       17.85072       12.11446
 H         18.62786       16.97791       13.25311
 O         14.87888       20.92031       16.49292
 H         14.36426       20.88514       17.29925
 H         15.78402       21.01423       16.78981
 O         21.00935       17.51098       15.31836
 H         21.84868       17.90526       15.55564
 H         20.69941       17.10191       16.12633
 O         12.72673       17.75560       14.97442
 H         13.20083       18.58632       15.01133
 H         13.32196       17.15957       14.51981
 O         17.75774       14.55289       18.93903
 H         18.53342       14.44142       18.38936
 H         17.17570       13.83832       18.68049
 O         19.35074       13.60420       17.09878
 H         18.83661       13.13351       16.44277
 H         19.93826       12.94230       17.46340
 O         17.55507       20.68306       17.12034
 H         17.72181       20.40506       16.21971
 H         17.48461       19.86630       17.61447
 O         13.83562       20.19231       14.09125
 H         14.50836       19.62078       13.72109
 H         14.24730       20.57797       14.86456
 O         15.44038       12.51606       15.28212
 H         15.30713       13.32729       15.77241
 H         15.69621       11.87443       15.94476
 O         13.91360       16.15597       13.16651
 H         13.12011       16.43521       12.70974
 H         14.14900       15.32552       12.75279
 
       14.56977       10.42761       10.19359       -0.834
       15.39767       10.65668        9.77129        0.417
       14.32096       11.21537       10.67708        0.417
       24.89161       11.49243       20.26530       -0.834
       24.71978       10.58439       20.51464        0.417
       25.39549       11.85071       20.99603        0.417
       13.95428       20.34374       27.98509       -0.834
       13.49075       19.57024       28.30615        0.417
       13.32535       21.05855       28.08370        0.417
       17.66291        8.98450        8.03668       -0.834
       16.99232        8.70224        7.41470        0.417
       18.46753        8.56845        7.72730        0.417
       28.53630       19.15574       23.70572       -0.834
       29.40361       19.32143       23.33618        0.417
       28.69364       18.53767       24.41949        0.417
        8.03643       13.97811        7.47126       -0.834
        7.33539       13.36504        7.69242        0.417
        7.67169       14.84091        7.66813        0.417
       17.49423       18.49239       27.82845       -0.834
       18.07587       18.91980       27.19976        0.417
       18.01989       17.78277       28.19772        0.417
       25.59280       25.44117       23.45819       -0.834
       25.34334       25.34253       24.37704        0.417
       25.64957       24.54476       23.12736        0.417
       15.96224       19.68259        6.43673       -0.834
       15.81821       19.72688        7.38200        0.417
       15.08263       19.69099        6.05930        0.417
       14.81378       16.04909        6.72497       -0.834
       14.19886       16.49208        7.30967        0.417
       14.26633       15.69686        6.02321        0.417
       11.95442        7.54727        9.48840       -0.834
       12.29451        7.56874       10.38288        0.417
       12.64100        7.11449        8.98092        0.417
       19.03789        9.61264        4.29846       -0.834
       18.51018       10.09543        3.66233        0.417
       18.63059        8.74746        4.34083        0.417
       23.15862        9.63596       13.98706       -0.834
       22.66494        8.82138       14.08175        0.417
       24.04298        9.41605       14.27993        0.417
       23.03533       17.99196        4.76522       -0.834
       22.84789       18.00081        5.70385        0.417
       23.29000       17.08806        4.57987        0.417
       16.40653       23.11451       26.52343       -0.834
       16.84193       22.44787       25.99216        0.417
       17.09910       23.73867       26.74022        0.417
       13.59106       19.97382        5.32468       -0.834
       12.84162       19.82113        5.90023        0.417
       13.24571       20.52434        4.62191        0.417
       16.99880       17.20506        5.68090       -0.834
       16.72348       18.09979        5.88067        0.417
       16.28124       16.65670        5.99813        0.417
       22.75078        4.31351       13.59687       -0.834
       22.92607        3.46509       13.18979        0.417
       22.38296        4.84650       12.89199        0.417
       12.06129       14.18501       10.64050       -0.834
       11.63212       14.26369        9.78853        0.417
       12.98565       14.04968       10.43198        0.417
        6.97237       14.72119       16.12958       -0.834
        6.80512       14.60698       15.19405        0.417
        7.38928       15.58028       16.19571        0.417
        6.95122        8.40187       13.10475       -0.834
        7.54043        8.75500       13.77136        0.417
        6.64604        9.17048       12.62274        0.417
       21.01952       12.80305       23.39849       -0.834
       21.67151       13.24933       23.93884        0.417
       20.69605       12.09165       23.95123        0.417
       15.58338       11.00513        6.03030       -0.834
       14.86624       11.07566        6.66036        0.417
       16.05184       11.83644        6.10586        0.417
       16.37254       24.51181       12.67456       -0.834
       16.13851       23.81684       12.05934        0.417
       16.77437       24.05361       13.41268        0.417
       19.55214       22.91563       12.42333       -0.834
       19.89081       23.80850       12.48915        0.417
       18.61054       23.00464       12.57065        0.417
        9.08593       26.48681       18.41816       -0.834
        8.62736       26.59384       17.58480        0.417
        9.21474       25.54200       18.50159        0.417
       24.44855        6.55584        9.26574       -0.834
       25.38322        6.42151        9.42252        0.417
       24.22658        7.32828        9.78563        0.417
       10.36451       11.77651       23.18304       -0.834
       11.22009       11.38343       23.35538        0.417
       10.40754       12.63722       23.59965        0.417
        6.39905       15.45439       19.68512       -0.834
        6.62582       16.36307       19.48738        0.417
        7.11031       15.14631       20.24675        0.417
       12.83517       26.77869       26.02686       -0.834
       12.88954       27.18723       26.89079        0.417
       12.14589       27.26491       25.57442        0.417
       13.69721       26.02061       17.07716       -0.834
       13.50145       25.50563       17.85992        0.417
       12.91934       25.92663       16.52733        0.417
        5.18989       20.36762       17.87933       -0.834
        4.68731       19.63976       18.24519        0.417
        4.54182       20.89724       17.41484        0.417
       25.97107       20.08825       16.78281       -0.834
       26.18795       20.18103       15.85513        0.417
       26.07672       20.96871       17.14319        0.417
       18.88822        2.11004       14.34739       -0.834
       18.80590        2.78279       13.67147        0.417
       19.46282        2.50049       15.00588        0.417
       20.74559       15.39646       20.72933       -0.834
       20.40584       16.15457       21.20479        0.417
       20.17518       14.67370       20.99101        0.417
       22.82775       15.08713       16.94985       -0.834
       22.55513       14.31364       16.45627        0.417
       23.48864       15.50399       16.39697        0.417
       16.71300        9.40779       29.76798       -0.834
       16.50330        8.52037       29.47686        0.417
       17.13478        9.28785       30.61883        0.417
       10.40792       21.41507       16.70384       -0.834
       10.79024       21.62647       17.55553        0.417
        9.62105       20.91149       16.91234        0.417
       24.84325        7.46406       17.34634       -0.834
       25.50577        7.82062       17.93808        0.417
       24.03133        7.90056       17.60415        0.417
       16.30378        2.16338       15.07358       -0.834
       15.91727        2.26821       14.20418        0.417
       17.22566        1.96898       14.90452        0.417
       16.21802       27.80019       20.45250       -0.834
       15.89564       26.90145       20.38483        0.417
       16.06475       28.17603       19.58562        0.417
       15.22769       17.92488       22.95526       -0.834
       16.01504       17.82196       23.48978        0.417
       15.42540       18.66078       22.37596        0.417
       13.35640       10.76494        7.57602       -0.834
       12.48365       10.96845        7.91239        0.417
       13.77884       10.27814        8.28369        0.417
       13.08562       22.37992        9.60494       -0.834
       12.54931       23.15942        9.46006        0.417
       12.56414       21.83619       10.19540        0.417
       27.31046       20.30843       26.38833       -0.834
       26.84767       19.52054       26.67343        0.417
       27.50681       20.15050       25.46489        0.417
       28.09120       16.57059        9.88352       -0.834
       28.12722       15.83508        9.27200        0.417
       28.99959       16.86185        9.96237        0.417
       18.37600        5.05959       15.36541       -0.834
       18.22910        5.20600       14.43095        0.417
       19.20005        4.57424       15.40565        0.417
       22.68223        3.29639       18.42094       -0.834
       21.73440        3.39727       18.50857        0.417
       22.84540        3.36923       17.48056        0.417
       23.80822       26.52297       20.68957       -0.834
       24.04365       27.39956       20.99354        0.417
       23.28643       26.67432       19.90150        0.417
       17.54283       20.87632       25.35022       -0.834
       16.59511       20.74298       25.33349        0.417
       17.76723       21.11689       24.45133        0.417
       16.53365       29.91830       13.75342       -0.834
       16.25648       29.39912       14.50831        0.417
       16.15403       30.78383       13.90501        0.417
        5.43106       25.15484       13.31219       -0.834
        5.85198       24.53578       12.71567        0.417
        6.12923       25.76034       13.56153        0.417
       21.69833        7.19122       26.84257       -0.834
       20.90034        7.51610       26.42556        0.417
       21.90143        6.38161       26.37404        0.417
        9.89523        9.44595       28.71258       -0.834
       10.15762       10.13389       29.32424        0.417
       10.42265        9.60656       27.93011        0.417
       23.88647        4.23040       20.91819       -0.834
       23.18048        4.72833       21.33034        0.417
       23.46768        3.78488       20.18174        0.417
        3.61300       14.89581       23.71479       -0.834
        4.53747       15.03505       23.50935        0.417
        3.18318       14.84057       22.86131        0.417
       19.01819       24.82854       20.62363       -0.834
       19.70275       25.45438       20.86012        0.417
       19.29907       24.00417       21.02080        0.417
       20.56501       21.99049       18.65150       -0.834
       20.77376       22.75193       19.19267        0.417
       20.31394       22.35946       17.80471        0.417
       26.49410       22.69127       17.36297       -0.834
       27.27667       22.71842       16.81244        0.417
       26.19174       23.59889       17.39519        0.417
       24.62264       20.53058       21.79283       -0.834
       23.91425       19.93738       21.54277        0.417
       25.19923       20.55123       21.02905        0.417
       17.24524       17.61780       10.49131       -0.834
       17.60439       17.15509        9.73425        0.417
       16.30402       17.44815       10.45191        0.417
       21.55227       15.36079       27.76267       -0.834
       20.67509       15.45912       28.13297        0.417
       22.05252       16.08726       28.13444        0.417
        8.43934       12.69966       18.95637       -0.834
        9.36760       12.84280       19.14097        0.417
        7.98053       13.23006       19.60783        0.417
       14.77049       14.89421        2.26945       -0.834
       13.98951       14.82268        1.72065        0.417
       15.31330       15.54895        1.83023        0.417
        1.64017       17.27055       13.80093       -0.834
        2.05712       17.17185       12.94499        0.417
        2.36019       17.47977       14.39593        0.417
       11.60307       21.75874       14.25798       -0.834
       11.24671       21.53382       15.11743        0.417
       12.28552       21.10574       14.10278        0.417
        8.91705       24.46852       22.51738       -0.834
        8.43179       24.15150       23.27912        0.417
        8.44541       25.25482       22.24259        0.417
       18.10053        5.68673       26.95196       -0.834
       17.70417        6.22359       27.63819        0.417
       17.66645        5.96789       26.14651        0.417
       20.99043        5.73356       17.39363       -0.834
       20.43579        5.79065       18.17167        0.417
       21.40858        6.59250       17.33345        0.417
       10.92879       14.63443        8.32240       -0.834
       10.04338       14.27608        8.26030        0.417
       11.29125       14.53243        7.44237        0.417
       22.14539        5.03640       24.93045       -0.834
       21.61643        4.24373       25.02054        0.417
       21.85930        5.42306       24.10288        0.417
        6.00940        7.03019       21.38338       -0.834
        5.07492        7.22545       21.31356        0.417
        6.30703        7.54606       22.13273        0.417
       10.64527       24.51512        6.44069       -0.834
        9.87097       24.00790        6.68445        0.417
       10.57543       25.32076        6.95284        0.417
       23.98719       22.51617       14.77114       -0.834
       24.27614       23.41885       14.90495        0.417
       24.75340       22.06985       14.41065        0.417
       13.06710       10.14131       20.43103       -0.834
       12.36775        9.98582       21.06583        0.417
       12.61655       10.20801       19.58913        0.417
       27.03343       10.62360       15.12631       -0.834
       27.25195       10.62543       16.05823        0.417
       26.95944        9.69674       14.89898        0.417
       27.43661       10.55915       17.89719       -0.834
       27.32802        9.67971       18.25915        0.417
       28.18973       10.91992       18.36505        0.417
       27.49998       27.73645       17.87281       -0.834
       27.09017       26.88627       17.71318        0.417
       27.00285       28.10960       18.60071        0.417
        9.84189       21.72968        8.69717       -0.834
        9.21316       22.06630        8.05871        0.417
        9.30591       21.26462        9.33957        0.417
       20.19783        7.82358        7.71863       -0.834
       20.64119        8.22657        8.46513        0.417
       20.90519        7.45301        7.19084        0.417
       21.26650       25.10102        5.81764       -0.834
       22.14811       24.81837        6.06075        0.417
       21.29271       26.05532        5.88723        0.417
        9.66389       13.86499       25.34075       -0.834
       10.48738       14.22025       25.00626        0.417
        9.89520       12.99940       25.67764        0.417
        9.65801       28.91001       11.02966       -0.834
        9.19884       28.17435       11.43486        0.417
       10.51930       28.91470       11.44727        0.417
       17.91966        4.51141       18.02681       -0.834
       18.46002        3.73209       18.15685        0.417
       17.91617        4.64562       17.07908        0.417
       20.04838       11.43336       25.61700       -0.834
       20.77937       11.77082       26.13469        0.417
       19.54282       10.90296       26.23289        0.417
        7.43142        7.12173       10.80750       -0.834
        7.26650        7.43542       11.69667        0.417
        7.49573        7.91799       10.28017        0.417
        5.21445       19.74262       25.58398       -0.834
        5.07800       20.68868       25.53317        0.417
        4.47459       19.42076       26.09899        0.417
       21.62365       12.31753       15.43210       -0.834
       22.11376       11.49647       15.38856        0.417
       20.70759       12.04716       15.49508        0.417
       16.50554       23.43601        8.29164       -0.834
       17.34376       23.30716        7.84777        0.417
       15.89156       22.88094        7.81084        0.417
       18.92763       11.38317       15.29935       -0.834
       18.99451       11.01398       14.41875        0.417
       18.75166       10.62962       15.86277        0.417
       24.26086        7.52631       11.99635       -0.834
       25.12607        7.18494       12.22243        0.417
       23.77771        7.52190       12.82266        0.417
       23.61250       17.59551       29.43383       -0.834
       23.61449       18.06686       28.60073        0.417
       22.89414       17.98803       29.92993        0.417
       28.24805       22.30330        9.73059       -0.834
       28.76360       21.50724        9.60127        0.417
       27.41516       22.12331        9.29456        0.417
       17.40013        7.80509       10.63991       -0.834
       17.04172        7.16692       10.02305        0.417
       17.55024        8.59002       10.11304        0.417
        8.84540        9.82578       22.03957       -0.834
        9.22963       10.51410       22.58255        0.417
        7.95006       10.12162       21.87504        0.417
       15.75320       29.04585       10.91343       -0.834
       16.56576       28.56259       10.76364        0.417
       15.80691       29.32853       11.82636        0.417
       20.76377       23.48980        8.41518       -0.834
       20.35860       24.29315        8.08852        0.417
       20.60314       23.50649        9.35866        0.417
       23.20260       28.88977       14.39497       -0.834
       23.80017       28.44614       14.99691        0.417
       23.41588       29.81845       14.48604        0.417
       10.07452        8.80660        8.10493       -0.834
        9.33421        8.37937        8.53580        0.417
       10.84678        8.37666        8.47237        0.417
       19.45756        7.78768       28.78310       -0.834
       19.13354        8.66437       28.57658        0.417
       20.14605        7.62805       28.13756        0.417
       22.05577       11.57990       21.19801       -0.834
       22.99924       11.52943       21.35148        0.417
       21.73561       12.18388       21.86803        0.417
       10.87267       13.20310       20.03811       -0.834
       11.77904       13.50464       20.09977        0.417
       10.39820       13.73717       20.67520        0.417
        2.72856       20.93886       16.10138       -0.834
        1.78912       20.99618       15.92702        0.417
        2.91355       21.68764       16.66826        0.417
       30.65064       14.46484       22.48385       -0.834
       30.37376       15.18688       21.91975        0.417
       30.13757       14.57533       23.28434        0.417
       12.55294       26.67271       14.44557       -0.834
       12.21048       25.78081       14.50450        0.417
       13.25773       26.61702       13.80028        0.417
       12.68169        7.34813       12.20796       -0.834
       12.46959        7.06730       13.09812        0.417
       13.58739        7.65312       12.26193        0.417
       16.97339       17.29902       30.45794       -0.834
       17.00136       17.40182       31.40920        0.417
       16.93858       18.19418       30.12074        0.417
       15.02758       14.60608       31.13812       -0.834
       14.80135       13.87044       31.70723        0.417
       15.52163       15.20200       31.70117        0.417
       29.67087       24.21152       17.78446       -0.834
       30.04482       24.84412       17.17111        0.417
       29.65330       23.38726       17.29813        0.417
       24.03441       14.21484       19.22351       -0.834
       24.38415       13.39064       18.88497        0.417
       23.72694       14.68213       18.44676        0.417
       16.10892       25.03494       20.39567       -0.834
       15.63486       24.21439       20.53056        0.417
       16.98565       24.76367       20.12367        0.417
       20.65518       19.13733       27.34581       -0.834
       21.51100       18.86909       27.01137        0.417
       20.83591       19.47807       28.22187        0.417
       27.01867       24.74889       11.26495       -0.834
       27.50945       24.23865       10.62073        0.417
       26.73846       25.53062       10.78891        0.417
       23.16937       15.58390        9.85071       -0.834
       23.44513       15.05683        9.10079        0.417
       23.94364       15.62636       10.41190        0.417
       18.73162       29.35101        9.78142       -0.834
       18.67719       29.59734       10.70478        0.417
       19.64316       29.08676        9.65686        0.417
        7.51592       21.93739       23.75140       -0.834
        6.83611       21.36676       23.39297        0.417
        8.31229       21.40692       23.72641        0.417
        9.53605       24.80058       10.50362       -0.834
        9.36537       25.33632        9.72898        0.417
        9.63785       23.91182       10.16307        0.417
       14.15566        6.12773        8.51461       -0.834
       14.23291        6.48316        7.62921        0.417
       15.05038        5.88791        8.75585        0.417
       24.72478       17.79833       20.89797       -0.834
       24.45183       17.90187       19.98637        0.417
       24.24715       17.02792       21.20547        0.417
       12.82771       17.31188        8.16389       -0.834
       12.11411       16.75731        7.84852        0.417
       12.47066       18.19965        8.13910        0.417
       22.43230        8.22009       17.95667       -0.834
       21.86662        8.43240       18.69908        0.417
       22.67355        9.06989       17.58806        0.417
       14.73609       22.46018        6.57934       -0.834
       14.34921       23.33403        6.63355        0.417
       14.27393       22.03761        5.85541        0.417
       22.69232       20.57221        9.69621       -0.834
       21.87165       20.90521       10.05932        0.417
       22.58426       19.62114        9.69158        0.417
       24.45623       15.70040        4.52782       -0.834
       25.20314       16.00165        5.04512        0.417
       24.42260       14.75632        4.68210        0.417
       18.47581       15.75590       28.74723       -0.834
       17.82962       16.26500       29.23660        0.417
       17.95421       15.18049       28.18769        0.417
       21.83969       19.93013       19.68033       -0.834
       21.49683       20.73766       19.29746        0.417
       22.18255       19.43766       18.93458        0.417
       15.43569        9.02125        4.21655       -0.834
       15.58031        9.71332        4.86180        0.417
       14.89201        9.43053        3.54341        0.417
        3.59986        9.60841       20.93570       -0.834
        4.14080       10.35198       21.20162        0.417
        3.03015        9.44512       21.68736        0.417
       17.35091        8.17591       25.85170       -0.834
       18.24056        8.05774       25.51886        0.417
       17.30987        9.09816       26.10472        0.417
       26.49896       14.54594       27.69811       -0.834
       27.24908       14.00009       27.93390        0.417
       26.51347       14.57345       26.74141        0.417
       21.56271       10.50576       11.82920       -0.834
       22.01633       10.42036       12.66775        0.417
       20.65862       10.25496       12.01879        0.417
        6.31586       22.29705       19.82526       -0.834
        5.87295       21.54011       19.44171        0.417
        5.65182       22.70893       20.37810        0.417
       26.01374       25.40924       17.54652       -0.834
       25.69502       25.14002       18.40801        0.417
       25.25886       25.30350       16.96755        0.417
        9.20827       10.12222       19.47440       -0.834
        9.23236        9.97945       20.42059        0.417
        8.97676       11.04587       19.37688        0.417
       26.64926        8.19037       14.04604       -0.834
       27.16427        8.04584       13.25225        0.417
       26.09855        7.41096       14.12004        0.417
       26.39868       20.16396       19.63866       -0.834
       26.57949       19.66748       18.84050        0.417
       27.20166       20.65928       19.80026        0.417
       19.92298       22.92198       16.31195       -0.834
       19.01158       22.99858       16.02963        0.417
       20.37114       22.51752       15.56911        0.417
       23.57425       24.66976       11.92194       -0.834
       23.07131       23.86415       12.04146        0.417
       24.45441       24.37141       11.69274        0.417
       17.15388       24.99128       23.50617       -0.834
       16.52053       25.40400       24.09334        0.417
       16.99365       25.39937       22.65528        0.417
       29.04147       25.18702       13.07122       -0.834
       28.18929       25.15442       12.63651        0.417
       29.34924       24.28068       13.06430        0.417
       15.44318       12.91998       12.60035       -0.834
       15.30284       12.60937       13.49481        0.417
       16.39403       12.99313       12.51811        0.417
       10.33155       18.57085       30.47204       -0.834
       10.33006       17.61892       30.57233        0.417
       10.58204       18.71566       29.55962        0.417
        7.22640       27.45743       14.02571       -0.834
        7.63956       28.08999       14.61342        0.417
        7.94308       27.13256       13.48068        0.417
       30.21377       19.75196       17.46180       -0.834
       30.53483       19.06963       18.05137        0.417
       29.99087       20.48238       18.03890        0.417
       16.53715       15.92098       25.15328       -0.834
       17.04650       16.70525       24.94903        0.417
       17.06039       15.19808       24.80707        0.417
       26.28495       18.09908        7.65729       -0.834
       26.57511       17.70098        8.47800        0.417
       26.61745       18.99589        7.69486        0.417
       12.04846        8.74840       26.82798       -0.834
       12.17016        8.17744       26.06940        0.417
       12.38094        8.23936       27.56728        0.417
       17.53902       11.58872        3.18281       -0.834
       17.97218       12.35196        3.56499        0.417
       16.60662       11.80354        3.20951        0.417
       19.01078        7.80973       14.90348       -0.834
       18.64728        6.93034       15.00728        0.417
       19.29799        8.05601       15.78274        0.417