%Nproc=32
%Mem=120Gb
%chk=temp.chk
#p cam-b3lyp/6-31+G(d,p) nosymm charge Freq 

Calculation for S0 with freq for abs spect

0  1
 C         16.24333       15.65675       15.51826
 C         17.74768       17.13203       16.68745
 C         16.97290       17.28403       17.75884
 C         15.77125       16.44963       17.82603
 N         15.49049       15.70429       16.66667
 H         18.66539       17.75761       16.58252
 H         17.13052       18.16634       18.40020
 O         14.94988       16.42130       18.72052
 O         15.86991       15.09213       14.53795
 N         17.44841       16.36043       15.59544
 H         17.87636       16.61970       14.70212
 H         14.59308       15.21605       16.62931
 O         14.53509       12.90370       16.53696
 H         14.43238       12.47847       17.38835
 H         15.48132       12.93126       16.39507
 O         17.55077       11.19632       14.81790
 H         17.14889       11.64210       14.07225
 H         17.25505       11.69183       15.58160
 O         19.90073       16.39357       19.07248
 H         19.85382       16.56608       18.13212
 H         19.12478       15.86486       19.25848
 O         16.53101       16.93222       11.05341
 H         17.38686       16.70145       10.69218
 H         16.69363       17.07006       11.98657
 O         16.40906       12.73305       12.78661
 H         16.69972       12.82695       11.87945
 H         16.14311       13.61524       13.04593
 O         12.23968       14.23277       15.01759
 H         12.90965       13.61799       15.31661
 H         12.30032       14.96873       15.62663
 O         18.77689       19.73429       13.91574
 H         17.89891       19.83177       14.28438
 H         18.69085       20.03011       13.00947
 O         15.48578       19.56657       14.28212
 H         15.21708       20.03116       13.48954
 H         14.98360       18.75186       14.26464
 O         12.44652       16.15534       17.17552
 H         12.09557       16.89317       16.67684
 H         12.40045       16.43915       18.08851
 O         13.60640       19.60873       18.04377
 H         12.69093       19.72983       17.79181
 H         13.75920       18.66863       17.94842
 O         18.77547       17.06442       12.90955
 H         19.44309       17.69802       12.64677
 H         19.23173       16.22297       12.91407
 O         13.16524       17.81190       14.19304
 H         12.86351       18.14134       13.34649
 H         12.36151       17.62465       14.67800
 O         20.30526       14.02855       15.28041
 H         20.17966       13.12626       15.57424
 H         19.93010       14.04867       14.40002
 O         17.29851       12.86286       16.84664
 H         17.98268       13.51283       16.68640
 H         17.36154       12.67392       17.78289
 O         17.86952       14.74256       19.86406
 H         17.69514       14.66769       20.80225
 H         18.15893       13.86823       19.60323
 O         20.85811       16.71916       16.48112
 H         21.30907       17.50336       16.16822
 H         20.71369       16.19496       15.69334
 O         18.13181       18.55527       21.07953
 H         17.37954       17.96766       21.15050
 H         18.88943       17.97156       21.04048
 O         19.28156       21.54185       16.66679
 H         18.64454       20.84658       16.50233
 H         19.61328       21.36032       17.54613
 O         16.98277       20.10233       16.46987
 H         16.39761       20.20058       17.22098
 H         16.41681       19.78979       15.76401
 O         15.41738       17.41772       21.39165
 H         15.26613       16.80601       20.67112
 H         14.80500       18.13536       21.22975
 
       11.65173        6.34973       18.88183       -0.834
       11.69778        6.68262       17.98557        0.417
       10.77764        5.96571       18.95059        0.417
       14.69238       21.51657       19.81048       -0.834
       14.65845       20.89597       20.53845        0.417
       13.99691       21.23022       19.21840        0.417
       17.58803       27.58662        7.78597       -0.834
       17.86981       28.49871        7.71583        0.417
       17.18483       27.52592        8.65199        0.417
       27.67652       25.77623       12.89362       -0.834
       27.18402       26.59206       12.80360        0.417
       28.53516       25.97159       12.51838        0.417
       28.85791        8.79088       17.52084       -0.834
       28.67273        9.16577       18.38189        0.417
       28.71502        7.85102       17.63254        0.417
       26.36435       13.35676       17.59301       -0.834
       25.62651       13.35665       18.20278        0.417
       26.06260       13.88113       16.85125        0.417
        8.14234       21.59753       21.53906       -0.834
        7.66149       22.39794       21.32843        0.417
        8.51515       21.31476       20.70402        0.417
        4.88293       18.73077       23.44359       -0.834
        5.57562       19.15044       23.95378        0.417
        5.10035       17.79883       23.46474        0.417
        8.20083       15.94798       14.07219       -0.834
        7.51347       16.41640       13.59855        0.417
        7.98143       15.02295       13.96075        0.417
        9.46864       11.81320       18.22289       -0.834
        9.59130       12.53999       17.61219        0.417
        8.54206       11.58662       18.14329        0.417
        8.05444       12.89965       27.55061       -0.834
        8.92921       12.68817       27.87663        0.417
        8.21006       13.34840       26.71956        0.417
       13.42182       29.41685       15.63712       -0.834
       13.68922       30.32743       15.51232        0.417
       12.78409       29.44958       16.35019        0.417
       28.39522       21.73110       16.39255       -0.834
       28.29638       22.57180       15.94568        0.417
       27.84659       21.80826       17.17311        0.417
       26.58980       13.17067       24.57862       -0.834
       26.77837       12.23463       24.64572        0.417
       27.07296       13.45788       23.80383        0.417
        2.46838       18.29572       10.17638       -0.834
        2.19044       19.19990       10.32281        0.417
        3.41598       18.35281       10.05376        0.417
       25.12653       11.85298       14.66517       -0.834
       25.97627       11.83454       15.10542        0.417
       25.24223       12.47406       13.94607        0.417
       13.44737        6.14061       13.73276       -0.834
       13.67282        6.51089       12.87936        0.417
       13.25106        5.22151       13.55128        0.417
       22.75700       21.88012        4.91514       -0.834
       22.34030       22.73056        5.05424        0.417
       23.58375       21.93674        5.39421        0.417
       25.01933       15.29914       15.97756       -0.834
       24.82946       15.86748       15.23112        0.417
       24.22165       14.78335       16.09548        0.417
       29.99500       13.44115       18.15013       -0.834
       29.35236       12.88074       18.58508        0.417
       30.37548       12.88629       17.46925        0.417
        7.28562       20.10748        8.42272       -0.834
        7.47739       19.65513        7.60124        0.417
        7.90191       19.73324        9.05229        0.417
       24.84705       13.24525       11.88049       -0.834
       24.41923       13.34637       11.03021        0.417
       24.12540       13.16553       12.50427        0.417
       20.35451       11.54791       16.10464       -0.834
       20.48130       11.41527       17.04409        0.417
       19.81621       10.80632       15.82805        0.417
       20.93098       25.26678       14.83111       -0.834
       20.06084       25.30614       15.22801        0.417
       20.93016       25.96922       14.18087        0.417
        6.82507        5.60839       10.74611       -0.834
        7.56576        5.72779       10.15168        0.417
        7.03657        6.15173       11.50524        0.417
       19.96994        6.46599       24.71022       -0.834
       19.51169        7.27294       24.94486        0.417
       20.18969        6.57512       23.78500        0.417
       23.74528       26.41949       11.86026       -0.834
       24.32915       25.66536       11.77900        0.417
       24.19257       27.00451       12.47174        0.417
       23.29209       15.10382       28.25995       -0.834
       22.43319       14.76558       28.00676        0.417
       23.84894       14.93844       27.49917        0.417
        9.64702       19.98879       10.46554       -0.834
        9.16136       20.63784       10.97455        0.417
       10.21302       20.50704        9.89345        0.417
       15.15072        6.46252       15.95935       -0.834
       14.82573        7.06243       16.63071        0.417
       14.41337        6.35192       15.35909        0.417
        3.97608       25.68122       16.34901       -0.834
        4.69862       25.53707       15.73794        0.417
        3.58044       24.81684       16.46102        0.417
       18.87703       25.42273       26.79161       -0.834
       18.98929       26.27952       27.20337        0.417
       19.35172       24.81824       27.36213        0.417
       19.53372       10.26154        8.14367       -0.834
       18.91537       10.07631        7.43687        0.417
       19.72562       11.19521        8.05611        0.417
       19.20748       14.30124       12.72378       -0.834
       19.76625       13.53935       12.57033        0.417
       18.60852       14.31383       11.97725        0.417
       24.30283       19.89739       24.65240       -0.834
       24.83338       20.68952       24.73768        0.417
       23.64647       20.11816       23.99158        0.417
       20.26470       15.93394       27.42961       -0.834
       20.52235       16.73081       27.89314        0.417
       20.55333       16.07669       26.52820        0.417
       24.36368       16.90145        3.46842       -0.834
       23.80736       16.96381        4.24486        0.417
       24.35538       17.78310        3.09581        0.417
        7.80761       20.85936       25.57809       -0.834
        8.05305       20.07337       26.06616        0.417
        8.51346       20.97728       24.94239        0.417
       18.97663       23.94358        5.86964       -0.834
       19.36456       24.78137        6.12232        0.417
       18.33644       23.75858        6.55679        0.417
       20.89293       27.26407       20.80614       -0.834
       20.61395       26.61324       20.16207        0.417
       21.04938       28.05719       20.29358        0.417
        7.87713       25.51733       12.84718       -0.834
        7.01945       25.20765       13.13825        0.417
        7.75586       26.45508       12.69834        0.417
       19.63750        9.19239       14.34161       -0.834
       18.81102        9.67249       14.39333        0.417
       19.46741        8.37137       14.80338        0.417
       19.53076        3.02645       14.46167       -0.834
       19.46918        3.50751       15.28691        0.417
       20.46245        3.04362       14.24283        0.417
       24.72171       11.32845        7.82658       -0.834
       25.59298       11.31774        8.22284        0.417
       24.61589       10.45232        7.45586        0.417
       14.54002       22.10755        8.78955       -0.834
       14.40079       22.50007        7.92771        0.417
       15.30041       22.56890        9.14338        0.417
        7.65574       23.20550        6.81578       -0.834
        8.11832       22.44454        7.16675        0.417
        6.76372       22.89422        6.66204        0.417
       18.74381       12.39231        2.21136       -0.834
       19.57661       12.33194        1.74334        0.417
       18.51073       13.31967        2.16782        0.417
       20.22844       20.97002       19.07936       -0.834
       20.96860       20.39974       19.28714        0.417
       19.60648       20.82540       19.79245        0.417
       14.81358       22.53177       15.46701       -0.834
       14.98218       21.61751       15.23911        0.417
       14.13743       22.81209       14.85019        0.417
       23.78707       19.73669       10.89761       -0.834
       24.52986       19.28090       11.29353        0.417
       23.97153       20.66508       11.04013        0.417
       17.46551       22.70629       12.57215       -0.834
       17.79153       22.72638       13.47190        0.417
       16.67462       23.24515       12.59139        0.417
        7.65062       14.59074       22.25974       -0.834
        7.60872       15.20562       22.99213        0.417
        8.53334       14.69896       21.90573        0.417
        8.07691        7.18918       21.42033       -0.834
        8.52240        7.75726       20.79179        0.417
        8.75759        6.58994       21.72664        0.417
       15.28807        4.72051       10.32248       -0.834
       15.33325        3.80296       10.05361        0.417
       16.19409        5.02685       10.28364        0.417
       21.42009       11.18860       21.43003       -0.834
       21.48092       10.67718       22.23687        0.417
       21.21794       12.07695       21.72365        0.417
        6.58549        9.35647       18.47706       -0.834
        6.23649        9.26712       17.59024        0.417
        6.33101       10.23876       18.74735        0.417
        8.53260       20.32090       19.22435       -0.834
        7.67101       20.46764       18.83400        0.417
        8.76197       19.42694       18.97049        0.417
       21.85833       15.02948        7.23286       -0.834
       22.12871       15.73587        7.81950        0.417
       22.16040       15.30693        6.36798        0.417
       19.90305       11.35614       12.22768       -0.834
       19.13851       11.14672       11.69117        0.417
       19.89162       10.70282       12.92715        0.417
       22.25189       28.73818       16.61391       -0.834
       22.98339       28.82150       17.22563        0.417
       21.47264       28.74152       17.16978        0.417
       23.69035       22.99836        8.86301       -0.834
       24.32777       23.27600        9.52092        0.417
       22.83949       23.14625        9.27581        0.417
       25.56910       21.48875       21.56168       -0.834
       26.48703       21.26736       21.40478        0.417
       25.55747       22.44472       21.60882        0.417
       10.41546       16.34252        4.89998       -0.834
        9.57303       16.40355        5.35034        0.417
       10.19816       16.42870        3.97176        0.417
       12.15057       12.13589        6.38952       -0.834
       11.96003       12.95916        5.93989        0.417
       12.55415       12.40155        7.21582        0.417
       11.31173       14.25576       24.31689       -0.834
       11.38938       13.31360       24.16674        0.417
       10.57766       14.52692       23.76568        0.417
        4.20956       13.89211        7.93011       -0.834
        5.03356       13.78284        8.40478        0.417
        4.05012       14.83588        7.94019        0.417
       21.68185       14.15795       19.22082       -0.834
       20.98052       14.80888       19.19495        0.417
       21.50806       13.64927       20.01282        0.417
       12.55924        9.09796        9.57339       -0.834
       12.74405        8.16567        9.68695        0.417
       12.69811        9.25820        8.63997        0.417
       10.43186       15.13245       21.91146       -0.834
       10.38581       16.07286       22.08395        0.417
       11.16930       15.03479       21.30906        0.417
       16.91105        1.70176       15.28719       -0.834
       17.79306        1.86505       14.95309        0.417
       16.88732        0.75904       15.45133        0.417
       16.75198       12.15028        4.14072       -0.834
       17.37132       11.88024        3.46268        0.417
       17.20580       12.84545        4.61718        0.417
       11.64301       19.21779       26.04443       -0.834
       11.76737       20.16066       26.15284        0.417
       11.82436       18.85076       26.90967        0.417
       14.22337        6.93390       11.44885       -0.834
       15.04164        7.42354       11.53205        0.417
       14.49599        6.05249       11.19389        0.417
       16.92501       22.49270       23.87599       -0.834
       16.36511       22.61749       24.64226        0.417
       17.49658       23.26048       23.86882        0.417
       25.82611        4.32631       19.93759       -0.834
       25.57751        5.20768       19.65900        0.417
       25.96857        3.84772       19.12096        0.417
        8.12626       20.07656       13.35009       -0.834
        8.15323       21.03260       13.31154        0.417
        7.24118       19.84974       13.06475        0.417
       22.96861       19.30475        8.30018       -0.834
       23.09733       19.37194        9.24630        0.417
       23.47870       20.02852        7.93659        0.417
       30.68725       11.07803       20.53690       -0.834
       29.77378       11.25854       20.31505        0.417
       31.01225       11.90043       20.90333        0.417
       17.85799       14.26713        5.83580       -0.834
       18.32123       14.12649        6.66155        0.417
       17.71333       15.21265        5.79981        0.417
        4.96537       20.04875       13.50872       -0.834
        5.24207       20.81928       13.01277        0.417
        4.42249       20.39990       14.21456        0.417
       10.40918       21.22629       23.22581       -0.834
        9.50185       21.17696       22.92488        0.417
       10.87538       21.66168       22.51214        0.417
       11.72067       18.70286       23.29330       -0.834
       11.08907       19.40734       23.14832        0.417
       11.90902       18.73865       24.23110        0.417
       19.07884       21.78440        4.38526       -0.834
       18.94580       22.54471        4.95135        0.417
       19.22106       22.15551        3.51446        0.417
        8.24408       14.06749       25.17940       -0.834
        8.40329       14.97303       24.91317        0.417
        7.92115       13.63774       24.38740        0.417
       13.40147       13.42476        8.65406       -0.834
       14.01698       14.08687        8.96870        0.417
       12.83596       13.24644        9.40548        0.417
       28.81110       16.99143       26.08077       -0.834
       28.19559       17.14709       25.36442        0.417
       28.63209       17.69236       26.70757        0.417
       10.92016       26.74054       18.22724       -0.834
       10.01815       26.42736       18.29456        0.417
       10.91506       27.32589       17.46990        0.417
       21.35605       18.54679       20.02238       -0.834
       20.83341       17.76807       19.83091        0.417
       21.67277       18.83935       19.16779        0.417
       17.13440        5.88595       12.43850       -0.834
       16.44811        5.57950       13.03122        0.417
       17.54480        5.08516       12.11211        0.417
       14.30140       15.98392       27.57569       -0.834
       15.08555       15.43751       27.52293        0.417
       14.63568       16.87972       27.62065        0.417
       14.13735       19.78681        2.45195       -0.834
       13.62779       19.55296        3.22777        0.417
       15.01220       19.98026        2.78877        0.417
       27.92380       12.39557       20.01747       -0.834
       27.61621       11.56899       20.38946        0.417
       27.22338       12.66716       19.42426        0.417
       19.97521        4.20503       26.02188       -0.834
       20.86931        3.97938       25.76515        0.417
       19.80960        5.04773       25.59921        0.417
       17.98277       26.03094       17.45016       -0.834
       17.43703       25.25916       17.60096        0.417
       17.52336       26.52008       16.76758        0.417
       24.28632       16.68164       12.96397       -0.834
       23.50267       16.25217       12.62094        0.417
       24.96735       16.01058       12.91796        0.417
       26.16888       16.45849       18.36099       -0.834
       25.89314       16.03083       17.55025        0.417
       25.40067       16.41199       18.93014        0.417
       26.40288       19.92623       11.03616       -0.834
       26.52406       19.47642       10.19996        0.417
       27.13901       20.53572       11.08969        0.417
       24.81758       14.80464       26.03630       -0.834
       25.40389       14.27023       25.50068        0.417
       24.66311       15.59046       25.51203        0.417
       11.66287       27.61006        9.02704       -0.834
       11.26322       27.17814        9.78199        0.417
       12.18006       28.32194        9.40383        0.417
        9.77043        5.26700       22.47406       -0.834
        9.50601        5.27518       23.39398        0.417
       10.14388        4.39600       22.33944        0.417
       28.41440       12.19551       15.38750       -0.834
       28.12481       12.45359       16.26258        0.417
       29.14107       11.59229       15.54337        0.417
       22.86481       10.73886       10.45584       -0.834
       23.11269       10.10341       11.12741        0.417
       23.54450       11.41144       10.49931        0.417
        9.22583       26.76366       15.73823       -0.834
        8.42767       27.05591       16.17842        0.417
        9.24636       27.26319       14.92197        0.417
       14.03081       24.16887        6.52100       -0.834
       14.43765       24.92727        6.93998        0.417
       13.09026       24.31314        6.62489        0.417
       10.47410        9.63763       12.63337       -0.834
       10.58090        9.22702       11.77534        0.417
       11.36805        9.79849       12.93538        0.417
       27.99342       24.70525       15.31218       -0.834
       27.12597       24.34244       15.49141        0.417
       27.88809       25.18414       14.49011        0.417
       28.69122       17.63787       17.56123       -0.834
       27.89825       17.13082       17.73543        0.417
       29.31875       16.99560       17.22969        0.417
       11.46507       22.81558       12.07810       -0.834
       11.72924       23.40864       12.78146        0.417
       10.52568       22.68884       12.21119        0.417
        7.73163       15.93850        6.07836       -0.834
        7.35194       15.46514        5.33809        0.417
        7.33067       15.53858        6.85006        0.417
       11.29523        5.36276        8.86937       -0.834
       11.17572        4.59559        8.30956        0.417
       12.08155        5.78874        8.52808        0.417
       22.57572       14.38437       16.64311       -0.834
       21.80298       14.23002       16.09971        0.417
       22.22283       14.60165       17.50595        0.417
       11.89335       18.79929       12.01115       -0.834
       11.38109       18.72807       11.20570        0.417
       11.28709       19.17663       12.64856        0.417
       16.80777        8.79049        9.36669       -0.834
       16.84221        7.83438        9.39676        0.417
       16.96431        9.00747        8.44764        0.417
       22.65532       14.80352        3.33266       -0.834
       22.99439       13.91068        3.39676        0.417
       23.39113       15.35876        3.59058        0.417
        9.45814        4.90313       13.15803       -0.834
       10.15528        5.30358       12.63852        0.417
        9.85273        4.75819       14.01798        0.417
       16.81586       20.79143       27.19323       -0.834
       17.06035       21.63351       26.80936        0.417
       17.13009       20.14108       26.56510        0.417
       21.98602        9.49017       26.82520       -0.834
       22.27225        8.60236       26.61049        0.417
       22.79271        9.95547       27.04649        0.417
       26.06042        5.51053       15.75275       -0.834
       25.25605        4.99354       15.70874        0.417
       26.55157        5.12876       16.48025        0.417
       20.71108       16.43828        2.29764       -0.834
       21.42557       15.95272        2.70992        0.417
       20.96838       17.35688        2.37644        0.417
        2.72717       19.76350       19.11361       -0.834
        3.28877       20.43659       19.49805        0.417
        2.83636       19.00416       19.68607        0.417
       15.49397       24.61386       12.67710       -0.834
       15.91116       25.47047       12.76883        0.417
       14.73171       24.65509       13.25459        0.417
       24.94927       18.89956       16.25455       -0.834
       25.05718       19.04988       15.31540        0.417
       25.82491       18.66551       16.56229        0.417
       22.02102       27.01887        9.47898       -0.834
       22.65855       26.50570        9.97542        0.417
       21.18176       26.82989        9.89871        0.417
       17.44023       11.10900       10.80296       -0.834
       16.66958       11.05612       11.36823        0.417
       17.30548       10.42339       10.14874        0.417
       20.78819        8.36043        5.51803       -0.834
       20.52012        9.25205        5.29583        0.417
       21.30922        8.45806        6.31505        0.417
        5.10542       15.93516       18.22510       -0.834
        5.76245       15.55702       17.64067        0.417
        5.59868       16.19946       19.00168        0.417
       10.76868       17.18769       15.17400       -0.834
        9.96623       16.83500       14.78939        0.417
       10.69031       18.13550       15.06561        0.417
       20.17559        6.29975       18.84198       -0.834
       20.24791        7.24814       18.94933        0.417
       21.05777        6.01761       18.60036        0.417
       19.26952        4.10758       17.27013       -0.834
       19.48508        4.82374       17.86753        0.417
       18.31704        4.14594       17.18330        0.417
        8.80759        9.51387       23.69029       -0.834
        8.48062        8.68662       23.33676        0.417
        8.79371        9.39140       24.63952        0.417
        8.14592       19.28422       16.21956       -0.834
        7.44857       19.71350       16.71520        0.417
        8.00065       19.55855       15.31410        0.417
       21.56509       12.37768        7.16761       -0.834
       21.81587       13.29841        7.24238        0.417
       22.18076       11.91438        7.73554        0.417
       18.04455       19.79976        6.72356       -0.834
       18.32989       20.62260        6.32640        0.417
       18.07022       19.96647        7.66578        0.417
        3.71121       12.23575       13.73150       -0.834
        4.08359       11.36462       13.59474        0.417
        3.03512       12.10603       14.39657        0.417
       20.63970       21.96511       30.63211       -0.834
       20.34375       21.46749       29.86986        0.417
       21.59200       21.99912       30.54154        0.417
       25.60272       23.49673       16.69490       -0.834
       24.67694       23.70171       16.56398        0.417
       25.60879       22.58060       16.97223        0.417
        7.50412       23.20410       15.09257       -0.834
        7.34161       23.07392       16.02685        0.417
        8.37892       23.59057       15.05271        0.417
       17.22701       27.50688       10.56088       -0.834
       17.74735       28.30355       10.66476        0.417
       16.48615       27.62491       11.15539        0.417
       19.12781       20.42870       28.86777       -0.834
       18.90862       19.49693       28.86658        0.417
       18.51950       20.81913       28.24027        0.417
       13.87778       15.04951       23.44515       -0.834
       12.97413       14.79017       23.62514        0.417
       13.82418       15.56231       22.63868        0.417
        5.23966       16.10970       23.43717       -0.834
        5.20276       15.76319       24.32868        0.417
        4.35594       15.98065       23.09276        0.417
       13.82970        8.68784       28.83843       -0.834
       14.05683        8.08337       28.13185        0.417
       13.98692        9.55730       28.47026        0.417
        8.95636        5.73947       18.42813       -0.834
        8.94887        5.86616       17.47939        0.417
        8.68104        6.58381       18.78518        0.417
       13.30290        8.43896       25.70756       -0.834
       12.48938        8.84652       26.00474        0.417
       13.08179        8.05151       24.86066        0.417
        2.02230       20.52118       14.62284       -0.834
        2.10727       19.59444       14.39886        0.417
        1.16353       20.58949       15.04007        0.417
       18.80889       12.72358       28.22887       -0.834
       18.00527       12.27954       28.49951        0.417
       19.26259       12.91946       29.04864        0.417
       17.80596       13.18260       25.44281       -0.834
       17.14491       13.87459       25.42339        0.417
       18.11150       13.16797       26.34982        0.417
       28.41564       23.09646       22.92700       -0.834
       28.32556       23.31008       21.99830        0.417
       28.71648       22.18781       22.93617        0.417
       18.08334        8.56339       28.60930       -0.834