%Nproc=32
%Mem=120Gb
%chk=temp.chk
#p cam-b3lyp/6-31+G(d,p) nosymm charge Freq 

Calculation for S0 with freq for abs spect

0  1
 C         16.54727       15.66210       15.52461
 C         15.38812       17.56185       16.69856
 C         16.44167       17.72340       17.56139
 C         17.63227       16.84225       17.40049
 N         17.59652       15.87021       16.36555
 H         14.48439       18.19967       16.72479
 H         16.39797       18.38314       18.41806
 O         18.67086       16.93759       18.01571
 O         16.44739       14.77211       14.73719
 N         15.45362       16.58010       15.70912
 H         14.61594       16.61655       15.10317
 H         18.34770       15.16790       16.34381
 O         13.79943       21.32492       16.29762
 H         14.49641       20.99536       15.73032
 H         14.24768       21.89584       16.92161
 O         15.67787       14.29304       20.88793
 H         15.02468       14.07052       21.55130
 H         15.23072       14.15077       20.05363
 O         18.41555       20.29288       15.51898
 H         18.22721       21.07339       16.04011
 H         19.13815       19.86576       15.97903
 O         17.37318       17.34225       21.08002
 H         17.85524       16.81887       21.72027
 H         17.91300       17.31210       20.29013
 O         11.79604       19.24512       16.41326
 H         11.56705       19.48371       15.51500
 H         12.65337       19.64586       16.55688
 O         18.23169       13.98840       20.23801
 H         17.30301       14.10323       20.43949
 H         18.68896       14.38417       20.97997
 O         15.75213       20.50724       14.57670
 H         15.59524       19.88124       13.86978
 H         16.69240       20.44770       14.74571
 O         14.97478       14.47174       12.26489
 H         15.11447       13.62992       12.69855
 H         14.57267       15.02350       12.93578
 O         13.42713       16.76286       13.60354
 H         13.60710       17.62177       13.22129
 H         12.55979       16.52980       13.27242
 O         19.95184       14.44542       13.48038
 H         20.65033       13.98754       13.01273
 H         19.62017       13.80175       14.10641
 O         16.18974       18.33104       12.63247
 H         15.97292       18.82556       11.84211
 H         17.11771       18.51211       12.78184
 O         18.85473       19.18070       13.16211
 H         19.59270       18.57172       13.13435
 H         18.81150       19.46390       14.07543
 O         20.42846       18.63378       16.40723
 H         21.38003       18.64726       16.30452
 H         20.19395       17.70754       16.34954
 O         20.91624       15.78053       16.13598
 H         20.50231       15.32723       16.87042
 H         21.33761       15.08484       15.63131
 O         13.47080       16.26897       19.28923
 H         14.05623       15.51231       19.25800
 H         12.65911       15.96121       18.88591
 O         14.63533       12.89435       16.13566
 H         14.02581       12.16545       16.01981
 H         15.29976       12.76135       15.45958
 O         13.07696       19.26947       19.34207
 H         13.22335       19.78644       20.13425
 H         13.55399       18.45402       19.49610
 O         17.74911       15.41005       12.08416
 H         18.56545       15.08853       12.46684
 H         17.06100       15.01186       12.61725
 O         17.88302       12.18627       17.66208
 H         18.41850       12.91233       17.98196
 H         17.70845       11.65605       18.43966
 O         21.07977       16.32691       19.55133
 H         21.14653       17.27926       19.48204
 H         20.20925       16.12190       19.21014
 O         14.20151       13.85978       18.53740
 H         13.75884       13.05637       18.81089
 H         14.57759       13.64769       17.68311
 O         19.73014       14.27855       17.88056
 H         20.30266       13.76784       18.45294
 H         19.09185       14.67638       18.47264
 O         18.32576       12.85209       14.99512
 H         17.51401       13.24212       14.67081
 H         18.13482       12.62180       15.90438
 
       20.39003       16.20750        1.37383       -0.834
       20.25537       16.03416        2.30552        0.417
       19.52509       16.09130        0.98064        0.417
        9.37892       19.51781        4.99089       -0.834
        9.34468       20.46462        5.12733        0.417
        9.26688       19.14512        5.86540        0.417
       24.78418       19.38068       21.92697       -0.834
       24.23440       20.03514       21.49609        0.417
       25.21769       19.85912       22.63365        0.417
       30.42722       21.03398       19.45229       -0.834
       30.16245       21.75783       20.01989        0.417
       29.99661       20.26549       19.82676        0.417
        9.16484        7.85791       15.49371       -0.834
        9.34318        7.50465       16.36528        0.417
        8.74945        7.13571       15.02243        0.417
       21.98830        7.19930       14.19770       -0.834
       22.03140        7.13594       15.15183        0.417
       21.07479        7.00773       13.98548        0.417
        9.40131        6.45306       23.08424       -0.834
        9.89436        6.02210       23.78237        0.417
        8.53993        6.62022       23.46674        0.417
       21.39481       20.91464        9.43898       -0.834
       22.01097       21.01023       10.16523        0.417
       21.02840       20.03722        9.54902        0.417
       26.23383       15.19475       25.53374       -0.834
       26.92540       15.81107       25.77479        0.417
       26.37156       14.44240       26.10927        0.417
       10.16020       26.05272       25.75182       -0.834
       11.04203       25.68981       25.66864        0.417
        9.64230       25.57591       25.10324        0.417
       16.32775       25.99112       22.75581       -0.834
       15.45099       26.06002       22.37798        0.417
       16.91085       25.92848       21.99930        0.417
       11.21927       14.54051       21.51279       -0.834
       11.08096       15.12266       20.76566        0.417
       10.38244       14.54349       21.97749        0.417
       18.63865       26.70294        7.72554       -0.834
       17.94496       26.15681        8.09536        0.417
       19.45023       26.25797        7.96962        0.417
       21.86535       17.83986        4.05123       -0.834
       21.98530       18.37967        3.26992        0.417
       22.67941       17.34195        4.12622        0.417
       17.42385        4.48198       16.09975       -0.834
       17.70551        4.04213       15.29761        0.417
       17.35215        5.40459       15.85504        0.417
       15.32591       27.76734        7.49243       -0.834
       14.38899       27.90704        7.62990        0.417
       15.42852       26.81567        7.48780        0.417
       14.78757       19.69169        4.08035       -0.834
       14.66156       18.74874        3.97446        0.417
       15.71207       19.78599        4.30975        0.417
       22.96314       17.39218       17.24352       -0.834
       23.84188       17.06224       17.43112        0.417
       22.44543       16.60739       17.06379        0.417
        7.94604       23.64150       24.59045       -0.834
        7.25021       23.99287       25.14596        0.417
        7.49790       23.36287       23.79184        0.417
       26.84855       20.28165        8.01708       -0.834
       27.02666       21.22213        8.01662        0.417
       27.51640       19.91120        8.59412        0.417
       14.18388        9.10377       25.41190       -0.834
       13.92268        9.82032       25.99031        0.417
       13.65995        8.35738       25.70281        0.417
       20.89346       12.53414        5.42803       -0.834
       20.23267       13.22300        5.35688        0.417
       21.02688       12.23572        4.52838        0.417
        8.71296       14.38736       22.70408       -0.834
        8.47130       14.07304       21.83286        0.417
        8.03792       14.03298       23.28285        0.417
        9.34435       21.92279       26.39455       -0.834
       10.05125       21.59957       25.83593        0.417
        8.90976       22.59349       25.86775        0.417
       27.41412       23.12068       21.28391       -0.834
       26.86415       23.20062       22.06325        0.417
       27.66668       22.19766       21.26206        0.417
       12.41911       16.16256        6.51675       -0.834
       11.66710       15.65104        6.21831        0.417
       13.17470       15.73759        6.11090        0.417
       20.27611       18.47639        9.98776       -0.834
       20.42961       17.63011       10.40785        0.417
       19.43269       18.37579        9.54644        0.417
       28.89694       13.76058       14.84201       -0.834
       28.39049       14.56921       14.91848        0.417
       29.21717       13.76236       13.93997        0.417
       15.40601       12.12508       13.47493       -0.834
       14.70897       11.46935       13.45513        0.417
       16.21445       11.61834       13.39833        0.417
       18.60774        1.77397       19.55599       -0.834
       18.41601        2.65989       19.24837        0.417
       18.47654        1.81521       20.50326        0.417
        9.13063       10.50118       28.08865       -0.834
        9.05284        9.56460       27.90700        0.417
        9.58211       10.85736       27.32345        0.417
       22.75310       19.10934       11.45031       -0.834
       22.74850       18.67672       10.59647        0.417
       22.08203       18.65036       11.95552        0.417
       29.42234       17.51529       15.16079       -0.834
       28.92152       18.26623       14.84220        0.417
       28.89376       16.75457       14.91966        0.417
       21.28915       11.77811       17.59095       -0.834
       20.68641       11.57979       16.87429        0.417
       22.12284       11.96394       17.15889        0.417
       24.72829       28.73342       22.79200       -0.834
       25.55804       28.63877       23.25974        0.417
       24.50759       27.84491       22.51259        0.417
       22.12972        7.30824       16.86378       -0.834
       22.59894        6.53888       17.18648        0.417
       21.46980        7.48550       17.53410        0.417
        8.48443        7.70186        8.27820       -0.834
        7.64653        8.14689        8.40510        0.417
        9.11816        8.41056        8.16704        0.417
       11.09823       11.04998        9.11474       -0.834
       11.13432       10.45436        9.86318        0.417
       11.22160       10.48481        8.35211        0.417
       14.33669       28.55966       21.01641       -0.834
       15.16574       28.29149       20.62019        0.417
       13.73870       27.83437       20.83586        0.417
       17.73696       12.87340       10.50241       -0.834
       16.94256       12.75241        9.98230        0.417
       17.51038       13.55914       11.13063        0.417
       24.02204       17.01577       14.33943       -0.834
       24.13354       17.82581       13.84180        0.417
       24.43973       17.19253       15.18235        0.417
        4.79867       13.60333        9.28520       -0.834
        3.97292       13.82158        9.71733        0.417
        5.43466       13.54533        9.99821        0.417
       14.52019       25.43840        6.15700       -0.834
       15.06184       25.34264        5.37362        0.417
       13.88860       26.12092        5.93011        0.417
       24.85339       26.53592       19.67559       -0.834
       24.85801       26.18937       20.56784        0.417
       23.94962       26.81657       19.53182        0.417
       20.01582       29.71090       18.08622       -0.834
       20.87635       30.11952       18.17972        0.417
       19.40278       30.36135       18.42877        0.417
       14.63368        2.68133       15.97938       -0.834
       14.13659        3.48011       16.15570        0.417
       15.33976        2.96169       15.39707        0.417
        3.47190       24.20340       13.25436       -0.834
        2.51716       24.19667       13.32252        0.417
        3.69697       23.32423       12.94999        0.417
        8.69759        8.67598       24.49941       -0.834
        9.01610        8.46721       25.37759        0.417
        9.40169        9.19050       24.10478        0.417
        8.93306        5.78597       13.43374       -0.834
        9.67944        5.19447       13.53011        0.417
        8.21954        5.22457       13.13051        0.417
       19.95288       22.94955        9.57727       -0.834
       20.36599       22.08609        9.57367        0.417
       19.20394       22.85972        8.98798        0.417
       12.24552       14.80729       10.91970       -0.834
       13.15047       14.57529       11.12821        0.417
       12.31517       15.62217       10.42236        0.417
        7.02964        7.95522       21.32828       -0.834
        7.96872        7.77456       21.36963        0.417
        6.62193        7.09187       21.26022        0.417
       11.42244       21.47501       18.61199       -0.834
       11.21611       21.14884       17.73605        0.417
       12.14945       20.92676       18.90713        0.417
        7.75862       22.08364       12.20456       -0.834
        7.22954       22.88034       12.16471        0.417
        7.15547       21.38243       11.95808        0.417
       22.74587       15.43516       12.39392       -0.834
       23.06698       15.77127       13.23066        0.417
       22.66801       14.49069       12.52864        0.417
       21.81935       15.38691       29.81458       -0.834
       21.23762       15.14267       29.09474        0.417
       21.78649       16.34331       29.83575        0.417
       16.72692       22.08867        8.78806       -0.834
       17.47986       21.72996        8.31834        0.417
       15.97517       21.61197        8.43613        0.417
       20.31001        4.21484       14.82147       -0.834
       20.99931        4.46573       14.20653        0.417
       20.72832        3.58273       15.40601        0.417
       21.09604       23.62107       17.67997       -0.834
       21.55411       23.92003       18.46548        0.417
       21.40496       24.20325       16.98580        0.417
       10.39615       22.26323       11.36897       -0.834
        9.51839       22.38856       11.72963        0.417
       10.37608       21.38521       10.98832        0.417
       16.65733       27.34639       19.82761       -0.834
       17.60925       27.43979       19.79068        0.417
       16.40831       27.07548       18.94396        0.417
       27.53220       14.28691       23.07949       -0.834
       26.96278       14.45056       23.83130        0.417
       27.25999       13.42867       22.75459        0.417
       23.33912        5.01372       10.83745       -0.834
       23.71581        5.22867       11.69076        0.417
       23.93819        4.36551       10.46708        0.417
       11.28984       22.35802       15.74768       -0.834
       10.78391       21.73075       15.23114        0.417
       12.17970       22.00534       15.74908        0.417
       10.48987       25.43353       15.78154       -0.834
       11.07004       24.78722       16.18394        0.417
       11.05593       26.18358       15.59924        0.417
       21.04156       18.99549       25.13572       -0.834
       20.52837       18.19365       25.23531        0.417
       21.95231       18.70548       25.18723        0.417
        7.03734       22.03566       17.65691       -0.834
        6.24929       22.22477       18.16626        0.417
        7.38042       21.22691       18.03699        0.417
       18.04263       16.16342       29.52351       -0.834
       17.34284       16.52740       28.98127        0.417
       18.16278       16.80555       30.22313        0.417
       15.56294       16.55454        9.98222       -0.834
       14.72827       16.39888        9.54027        0.417
       15.46349       16.13594       10.83727        0.417
       14.96044       21.73975       25.65415       -0.834
       15.17980       22.64512       25.43411        0.417
       15.79492       21.34555       25.90808        0.417
       17.77180        4.99111       12.14229       -0.834
       18.52034        4.61447       11.67963        0.417
       17.58289        4.36595       12.84209        0.417
        5.49563       12.49288       21.68126       -0.834
        6.03204       13.27873       21.57669        0.417
        5.74421       11.93301       20.94575        0.417
        8.94198       18.64894       13.43415       -0.834
        8.20923       18.57801       14.04593        0.417
        9.36550       17.79114       13.46646        0.417
       26.16085       25.89050       12.77603       -0.834
       25.39389       25.36656       12.54477        0.417
       26.72781       25.83864       12.00654        0.417
       10.09857        7.06420       17.80833       -0.834
        9.29909        6.89434       18.30655        0.417
       10.72666        7.37410       18.46078        0.417
       19.18320       27.08298       23.29952       -0.834
       18.85714       26.35465       23.82816        0.417
       19.96570       27.38352       23.76168        0.417
        4.31752       14.67517       24.72537       -0.834
        3.74660       14.16039       24.15504        0.417
        4.88671       15.15592       24.12443        0.417
       13.71271        7.46100       18.05417       -0.834
       14.56512        7.82412       18.29452        0.417
       13.15748        7.62759       18.81588        0.417
        4.45953       22.81534       18.75962       -0.834
        3.83654       22.36078       18.19261        0.417
        3.97249       22.98142       19.56674        0.417
       12.88730       27.67623       23.27140       -0.834
       12.77044       28.20800       24.05867        0.417
       13.75421       27.91769       22.94521        0.417
       25.53766       20.10074       11.17382       -0.834
       24.68271       19.67548       11.10710        0.417
       26.15758       19.44457       10.85546        0.417
       25.72599        9.20389       13.70407       -0.834
       26.10097        8.66392       14.39981        0.417
       26.04870       10.08668       13.88511        0.417
       16.47090       24.93971        8.28365       -0.834
       16.66301       24.04117        8.55191        0.417
       15.87750       24.84601        7.53844        0.417
       24.25529        5.46121       13.35333       -0.834
       23.60619        6.08949       13.66983        0.417
       24.14507        4.69683       13.91885        0.417
       20.06731       15.49696       27.60819       -0.834
       19.53617       15.82168       26.88109        0.417
       19.65177       15.86059       28.39007        0.417
       24.07347       14.94385       23.91825       -0.834
       23.82892       14.09740       24.29236        0.417
       24.90084       15.16513       24.34572        0.417
       21.52557        6.93091        9.76478       -0.834
       22.22867        6.49166       10.24324        0.417
       21.36113        7.73218       10.26193        0.417
       11.12107        9.95518       24.25377       -0.834
       11.52359        9.34116       24.86793        0.417
       10.78424       10.66079       24.80593        0.417
       18.24169       12.72699       27.10181       -0.834
       17.51015       12.90615       26.51106        0.417
       18.14580       11.80208       27.32890        0.417
       21.12860       17.75540       13.39709       -0.834
       21.72906       17.73973       14.14236        0.417
       20.99102       16.83327       13.18032        0.417
       13.47738       14.53711       22.66474       -0.834
       13.44887       13.99866       23.45561        0.417
       12.61581       14.42102       22.26418        0.417
       25.57965       17.59553       29.10202       -0.834
       24.89709       17.29334       28.50285        0.417
       25.66215       16.89225       29.74609        0.417
       23.28266       16.99663       21.84833       -0.834
       22.47247       17.47078       22.03543        0.417
       23.96981       17.65955       21.91613        0.417
       27.59204       14.58432       18.32671       -0.834
       28.42047       14.93367       17.99823        0.417
       27.66133       13.63874       18.19515        0.417
       20.40381        4.46850       21.49090       -0.834
       19.70014        4.26199       20.87573        0.417
       21.20827        4.32267       20.99308        0.417
       12.09610        7.28879       26.10355       -0.834
       12.25774        6.61812       26.76710        0.417
       12.05758        6.80547       25.27824        0.417
       16.84267       24.35136       12.78405       -0.834
       17.50142       23.65745       12.75633        0.417
       17.22591       25.02373       13.34733        0.417
       28.25988       20.51220       21.26039       -0.834
       28.39615       19.76160       20.68224        0.417
       27.88814       20.13617       22.05829        0.417
       17.54583       16.54674        1.45011       -0.834
       17.28997       16.11533        2.26537        0.417
       16.90554       16.24302        0.80667        0.417
       25.95039       26.50040       16.98624       -0.834
       26.81864       26.89335       16.89702        0.417
       25.59394       26.88520       17.78693        0.417
        5.09011       16.08147       16.71495       -0.834
        5.41302       15.68184       17.52258        0.417
        4.17783       16.30111       16.90396        0.417
       14.58378       23.77952       18.67859       -0.834
       13.64963       23.98019       18.62091        0.417
       14.78297       23.83077       19.61343        0.417
       27.74242       24.43682       14.39076       -0.834
       27.10964       25.02833       13.98342        0.417
       28.55379       24.58112       13.90384        0.417
       15.83916       28.83852       23.84037       -0.834
       15.99710       27.91470       23.64582        0.417
       16.67019       29.15459       24.19491        0.417
       25.04857       16.01828       10.57599       -0.834
       24.59880       16.69932       10.07586        0.417
       24.43725       15.79200       11.27693        0.417
       21.85954       11.59481       20.38835       -0.834
       21.74997       11.77838       19.45533        0.417
       21.97398       12.45585       20.79052        0.417
        5.50882       16.95824       22.85702       -0.834
        5.06429       17.33012       23.61881        0.417
        6.42920       16.91107       23.11559        0.417
       16.58358       25.46602       27.55115       -0.834
       17.30418       25.44719       26.92138        0.417
       16.59336       26.35716       27.90045        0.417
       24.01913        8.81596       11.59387       -0.834
       24.59779        8.97938       12.33863        0.417
       23.13778        8.95902       11.93882        0.417
       14.75169       21.00503       21.11162       -0.834
       15.41210       20.58861       21.66540        0.417
       15.11231       21.87014       20.91727        0.417
       10.91149       17.59595        3.17741       -0.834
       10.81902       16.86102        3.78368        0.417
       10.45431       18.31954        3.60594        0.417
       11.32706        5.96719       21.26691       -0.834
       10.65680        6.19918       21.90969        0.417
       10.88729        5.36259       20.66917        0.417
        8.50054       12.15522       12.39054       -0.834
        8.72890       11.43883       12.98288        0.417
        9.33025       12.40310       11.98266        0.417
       21.17437       23.86766       12.27293       -0.834
       21.35225       23.17680       12.91113        0.417
       20.54233       23.47888       11.66828        0.417
       25.77963       24.57645        8.62938       -0.834
       25.23628       24.47401        7.84803        0.417
       25.49760       23.87125        9.21196        0.417
       13.10219        9.85768        6.78187       -0.834
       12.18468        9.67604        6.57834        0.417
       13.48739        8.99630        6.94273        0.417
       15.75318       12.04492       29.99530       -0.834
       16.37420       12.72309       29.72948        0.417
       14.99383       12.52883       30.32003        0.417
       22.39306       24.54565       19.79302       -0.834
       22.37647       25.46452       19.52537        0.417
       21.97927       24.53959       20.65614        0.417
        9.40609       15.46652       25.20079       -0.834
        9.28216       15.28256       24.26964        0.417
        8.62888       15.96541       25.45237        0.417
       23.92330       12.30272       25.26451       -0.834
       23.39812       12.00788       24.52054        0.417
       23.36222       12.92977       25.72085        0.417
       10.11275       27.05599        7.68670       -0.834
        9.59579       26.43402        8.19869        0.417
        9.83708       27.91587        8.00428        0.417
       10.45203       12.40947        4.35670       -0.834
       10.25610       12.74610        3.48233        0.417
       11.27643       11.93449        4.25182        0.417
       24.03563       24.26420       24.72268       -0.834
       24.20524       23.53243       25.31596        0.417
       23.10840       24.18235       24.49959        0.417
       18.11232        5.83281       22.19182       -0.834
       19.02514        5.55723       22.10788        0.417
       17.70678        5.15747       22.73559        0.417
       23.23936       21.10069        7.17925       -0.834
       22.87557       21.23369        6.30392        0.417
       22.47653       21.09200        7.75739        0.417
       16.13757        9.41660       18.06511       -0.834
       16.26869       10.10384       18.71837        0.417
       15.58236        9.82162       17.39882        0.417
        8.18721       15.92577       16.67498       -0.834
        7.90407       16.74436       16.26758        0.417
        7.72335       15.24329       16.18991        0.417
        3.23439       17.63638       20.96912       -0.834
        3.19825       17.57396       21.92360        0.417
        4.16935       17.63826       20.76398        0.417
       23.42950        6.67960        7.17059       -0.834
       23.30653        7.24225        7.93514        0.417
       22.64732        6.12826        7.15009        0.417
       22.10092       10.31322       14.47710       -0.834
       21.17035       10.31634       14.70132        0.417
       22.27484        9.41782       14.18687        0.417
        2.96608       19.72697       11.68096       -0.834
        3.09035       19.43575       10.77765        0.417
        2.41036       19.05485       12.07550        0.417
       24.93574       15.03302       17.17296       -0.834
       24.39570       14.80684       17.93021        0.417
       25.82000       14.76151       17.41912        0.417
       27.72643       11.91001       18.10956       -0.834
       27.33013       11.10458       17.77719        0.417
       28.65199       11.69340       18.22200        0.417
       16.77147       24.13960       17.14757       -0.834
       16.50879       24.17091       16.22765        0.417
       15.96595       24.31685       17.63332        0.417
       22.75985       29.94721       17.83447       -0.834
       23.53562       30.49809       17.72986        0.417
       23.02610       29.09143       17.49835        0.417
       19.53008       15.64349       22.11725       -0.834
       20.20166       15.65733       21.43532        0.417
       19.93042       15.15797       22.83852        0.417
       20.29152       29.94158       22.14356       -0.834
       21.07997       30.45838       22.30937        0.417
       20.61524       29.12571       21.76171        0.417
       13.58108        9.98391       12.91322       -0.834
       13.28529        9.24362       13.44303        0.417
       13.22863        9.81035       12.04036        0.417
        3.81431       25.71883       15.99938       -0.834
        3.22583       25.22975       16.57447        0.417
        4.26907       25.04582       15.49294        0.417
       25.48347        7.79448       23.58615       -0.834
       24.82715        7.81315       24.28267        0.417
       25.00906        8.07042       22.80192        0.417
        5.67658        8.32038       17.27295       -0.834
        5.28325        8.47989       16.41500        0.417
        6.60496        8.17792       17.08858        0.417
       12.50414       24.34557       25.52696       -0.834
       13.45883       24.33331       25.59521        0.417
       12.31003       23.78494       24.77580        0.417
       14.36428       30.52772       16.39739       -0.834
       13.65789       30.00814       16.78115        0.417
       14.60523       30.05419       15.60119        0.417
       17.40279        8.13345        9.04641       -0.834
       17.86862        8.87395        8.65795        0.417
       18.09465        7.52932        9.31582        0.417
       21.79697       25.61147       16.06582       -0.834
       21.05137       26.07972       16.44139        0.417
       21.56298       25.48592       15.14619        0.417
       19.65703       10.71131       21.64755       -0.834
       19.52186       11.34025       22.35634        0.417