%Nproc=32
%Mem=120Gb
%chk=temp.chk
#p cam-b3lyp/6-31+G(d,p) nosymm charge Freq 

Calculation for S0 with freq for abs spect

0  1
 C         16.99633       15.28037       16.56881
 C         17.56779       17.61154       17.05998
 C         16.36134       18.08102       16.69443
 C         15.38505       17.14045       16.15629
 N         15.79608       15.80899       16.13603
 H         18.30297       18.24382       17.58499
 H         16.08199       19.11009       16.69232
 O         14.38656       17.54147       15.61147
 O         17.24973       14.08637       16.58650
 N         17.86687       16.26925       17.03716
 H         18.80991       15.94768       17.40269
 H         15.13050       15.11569       15.74748
 O         13.95728       12.86962       15.49638
 H         13.63428       12.00697       15.75665
 H         14.76954       12.68903       15.02325
 O         20.76015       17.88681       16.80300
 H         20.64605       17.19982       17.45970
 H         20.38558       17.51850       16.00282
 O         17.87641       19.45975       20.74433
 H         18.71827       19.16980       21.09566
 H         17.47113       18.66235       20.40354
 O         12.94036       18.48212       13.32266
 H         13.07510       19.42508       13.22836
 H         13.53214       18.22464       14.02958
 O         19.91501       17.69544       20.80276
 H         19.39470       16.99687       20.40589
 H         20.57738       17.23713       21.31992
 O         16.62414       12.26180       19.17718
 H         16.45087       11.32949       19.04678
 H         16.62840       12.63093       18.29402
 O         14.95749       19.68958       19.29244
 H         15.37685       19.02172       19.83496
 H         15.67779       20.09094       18.80633
 O         11.70058       17.66121       16.98878
 H         11.87532       18.44751       17.50591
 H         12.51432       17.50297       16.51022
 O         17.39918       11.46546       16.05879
 H         17.43199       12.40648       16.23094
 H         16.89799       11.38732       15.24704
 O         15.57246       14.67826       19.81998
 H         15.00237       14.53481       19.06457
 H         16.34021       14.13302       19.64820
 O         18.14175       19.66383       12.77565
 H         17.61353       18.87416       12.65888
 H         18.75305       19.65474       12.03913
 O         16.80634       21.24172       17.86584
 H         17.48024       21.13091       17.19517
 H         16.04105       21.55972       17.38684
 O         18.23635       14.60317       13.32219
 H         18.62242       15.36747       13.75002
 H         18.74032       13.86109       13.65619
 O         18.47109       20.77539       15.19790
 H         18.52232       20.33465       14.34975
 H         17.89354       21.52329       15.04520
 O         14.80717       16.05700       12.62637
 H         15.61675       16.55170       12.49949
 H         14.20231       16.68415       13.02266
 O         20.33984       16.34206       14.37801
 H         20.89543       16.25845       13.60305
 H         20.31385       15.46085       14.75088
 O         16.30646       17.27607       20.72653
 H         16.28880       17.06486       21.65997
 H         15.89589       16.52267       20.30220
 O         20.34735       15.82410       18.51641
 H         20.16125       14.88522       18.52676
 H         21.22631       15.89864       18.88805
 O         14.01157       13.61984       18.06587
 H         14.23363       13.23047       17.22010
 H         13.17445       14.05898       17.91551
 
       14.81418       18.39355       24.62504       -0.834
       13.90342       18.21542       24.39050        0.417
       15.12824       18.98169       23.93824        0.417
       13.34135       14.59548       29.54487       -0.834
       12.38754       14.65720       29.59659        0.417
       13.50551       14.06198       28.76727        0.417
        8.26931       24.75178       25.27090       -0.834
        7.52585       25.24437       24.92328        0.417
        7.87686       24.11342       25.86647        0.417
       24.16428       18.43457        4.77069       -0.834
       24.52823       18.01763        5.55167        0.417
       24.51836       17.92691        4.04052        0.417
       18.88305       26.72650       15.11543       -0.834
       17.94245       26.68088       15.28700        0.417
       19.00648       27.56844       14.67710        0.417
       22.34125       23.99544        9.86096       -0.834
       22.15498       24.45905       10.67742        0.417
       22.98751       24.54354        9.41581        0.417
       11.55144       14.75964       17.50157       -0.834
       11.60883       15.69954       17.67340        0.417
       11.47800       14.69379       16.54947        0.417
        7.04551       21.14793       12.48571       -0.834
        6.95097       20.35442       13.01262        0.417
        6.17783       21.55178       12.50224        0.417
       11.51287       11.04773       28.21244       -0.834
       12.27750       11.38397       28.67990        0.417
       11.03969       10.53239       28.86571        0.417
       21.80652       22.10525       24.96856       -0.834
       21.23767       22.23427       24.20961        0.417
       22.37193       22.87754       24.97874        0.417
       14.85754       19.64328        3.33832       -0.834
       14.14043       19.39210        3.92046        0.417
       14.42809       19.87613        2.51517        0.417
       10.63095       13.82378       10.49124       -0.834
       11.46304       13.89936       10.95829        0.417
       10.42991       12.88810       10.50899        0.417
       22.01568       16.23222        8.48491       -0.834
       21.95182       17.10681        8.86863        0.417
       22.85845       16.23022        8.03108        0.417
       10.62891       23.54777       24.58154       -0.834
       10.91688       23.31652       25.46462        0.417
        9.99577       24.25358       24.71270        0.417
       21.52812       17.05529       22.98966       -0.834
       21.85456       16.41134       23.61815        0.417
       20.62857       17.22751       23.26785        0.417
       21.71313       15.13354        1.97154       -0.834
       20.84466       15.51830        1.85342        0.417
       21.94055       15.32891        2.88056        0.417
       16.90773        1.15768       16.44753       -0.834
       16.57472        0.43933       15.90966        0.417
       17.37111        1.72441       15.83083        0.417
        7.89036       17.05968       25.18993       -0.834
        7.71782       17.91922       25.57419        0.417
        7.94828       17.22476       24.24885        0.417
       19.46463       16.11421       30.87383       -0.834
       18.93778       16.41840       30.13483        0.417
       19.63036       16.90245       31.39098        0.417
       10.72702        7.07291       18.67281       -0.834
       10.55933        6.66294       17.82426        0.417
       10.46400        6.41299       19.31434        0.417
       17.42154        5.39078        9.80178       -0.834
       17.71338        6.12499        9.26140        0.417
       16.54126        5.19266        9.48228        0.417
       24.86630        6.01065       10.48510       -0.834
       24.51241        5.47051        9.77852        0.417
       24.50160        6.88145       10.32719        0.417
        9.07953        9.24110       23.71594       -0.834
        8.57711        9.81363       24.29560        0.417
        9.67715        8.77354       24.29944        0.417
       20.38159       20.07911       11.16196       -0.834
       20.90922       20.85952       10.99225        0.417
       20.03365       19.83358       10.30471        0.417
       20.28506        2.14281       19.23555       -0.834
       21.19882        2.17009       19.51933        0.417
       20.28624        2.57371       18.38083        0.417
       18.15661       31.25071       11.67811       -0.834
       17.76268       30.99216       12.51130        0.417
       18.65205       30.48115       11.39785        0.417
       25.99358        7.83797       19.77503       -0.834
       26.91343        7.60105       19.65685        0.417
       25.99343        8.79486       19.79938        0.417
       15.97035       29.30267       17.08884       -0.834
       15.98264       28.49023       16.58285        0.417
       16.88533       29.58250       17.11576        0.417
       11.18710       28.11717       19.30326       -0.834
       12.08473       28.44432       19.24438        0.417
       11.27306       27.25075       19.70094        0.417
       22.11463       24.40873       17.07648       -0.834
       22.06682       25.13634       16.45638        0.417
       22.94907       23.98202       16.88189        0.417
       27.17402        7.50151       13.52848       -0.834
       26.26773        7.32197       13.27820        0.417
       27.65667        6.71998       13.25923        0.417
       16.79474       19.47607        9.39369       -0.834
       17.48313       20.02341        9.01585        0.417
       16.11021       19.45566        8.72494        0.417
       22.05467       13.04370       21.36596       -0.834
       21.93518       13.52874       22.18247        0.417
       21.36796       13.37506       20.78729        0.417
        7.32552       20.25415        6.25947       -0.834
        7.49149       20.73722        7.06899        0.417
        7.29317       19.33652        6.52992        0.417
       10.67870       10.57787       21.77758       -0.834
       11.17722        9.93046       21.27902        0.417
       10.26156       10.07357       22.47609        0.417
       25.50404       14.09976       24.87270       -0.834
       25.39522       14.63879       25.65618        0.417
       25.97335       14.66295       24.25722        0.417
       26.17586       23.71077       12.32542       -0.834
       27.00125       24.15461       12.52026        0.417
       25.58819       24.41084       12.04120        0.417
       24.23490        8.14484       25.56001       -0.834
       23.95338        9.00443       25.87319        0.417
       24.22326        8.22140       24.60594        0.417
       18.23803        3.28568       20.55622       -0.834
       18.98849        2.95329       20.06371        0.417
       18.57477        4.05399       21.01721        0.417
       16.02375        8.99015        3.57649       -0.834
       16.83953        8.51767        3.41067        0.417
       16.24921        9.62792        4.25373        0.417
       15.83338       23.23182       28.46343       -0.834
       16.30608       22.86387       27.71684        0.417
       14.91905       22.99413       28.30936        0.417
       15.54069       27.86617        9.94252       -0.834
       15.90975       27.03663       10.24567        0.417
       14.94856       28.13616       10.64445        0.417
       20.87161        9.64743       23.72381       -0.834
       20.02309       10.00533       23.46275        0.417
       20.74502        9.36654       24.63007        0.417
       15.86727       16.50347       29.30419       -0.834
       16.40360       15.75878       29.03213        0.417
       16.23654       16.77035       30.14600        0.417
       24.48530       23.35482       15.86190       -0.834
       24.30524       22.41510       15.88910        0.417
       25.31246       23.45442       16.33319        0.417
       23.03461        3.83833       10.39904       -0.834
       22.71330        3.73411       11.29466        0.417
       22.51446        4.55696       10.03957        0.417
       10.42096       19.07913       30.33833       -0.834
       10.35855       20.03129       30.26265        0.417
       10.72280       18.78923       29.47747        0.417
       18.09922       11.99684        7.05247       -0.834
       18.84535       11.90508        7.64502        0.417
       18.10606       12.91988        6.79913        0.417
       24.93424        6.06082       13.15402       -0.834
       24.91212        6.11920       12.19885        0.417
       24.50940        5.22655       13.35336        0.417
       23.76427       10.66789       27.02547       -0.834
       23.08076       10.30456       27.58854        0.417
       24.48395       10.87182       27.62272        0.417
        9.11004       17.47722       16.43554       -0.834
        9.00694       18.24919       15.87906        0.417
       10.04720       17.44310       16.62736        0.417
       22.56366       11.86074       13.71628       -0.834
       23.40868       11.85246       14.16585        0.417
       21.96027       12.25408       14.34671        0.417
       14.03058       27.30764       13.78405       -0.834
       13.21383       26.80999       13.82276        0.417
       13.92396       27.88544       13.02840        0.417
        8.54715       14.64555       23.21388       -0.834
        8.22732       14.18732       23.99103        0.417
        9.49246       14.49524       23.21869        0.417
       11.62095       18.29529       27.96038       -0.834
       11.64356       18.73054       27.10816        0.417
       11.10437       17.50328       27.81173        0.417
       13.22492       24.02626       15.65496       -0.834
       13.54750       24.11125       14.75777        0.417
       13.53303       24.81755       16.09674        0.417
       21.25130       22.09147        7.43247       -0.834
       21.88749       22.03543        8.14546        0.417
       21.54665       22.83368        6.90509        0.417
       17.18801        4.87161       23.52457       -0.834
       18.10788        4.70511       23.31881        0.417
       17.06227        4.48544       24.39135        0.417
       15.52706       13.30049        2.19267       -0.834
       16.27623       13.11908        1.62516        0.417
       14.76381       13.18603        1.62647        0.417
       18.89646        9.14683       15.75514       -0.834
       18.92032        8.49392       16.45470        0.417
       18.49485        9.91632       16.15865        0.417
        7.83497       14.16020        6.37913       -0.834
        7.70285       13.94549        7.30254        0.417
        8.78274       14.11088        6.25450        0.417
       27.92412       20.81414       23.05066       -0.834
       28.49136       21.58237       22.98510        0.417
       27.04831       21.14474       22.85094        0.417
       15.83116       11.54104       13.74247       -0.834
       15.08132       10.95001       13.67432        0.417
       15.79513       12.06751       12.94387        0.417
       19.58042       23.91969       10.54626       -0.834
       19.78095       23.58046       11.41858        0.417
       20.40024       23.83142       10.06013        0.417
        4.50083       20.10935        9.55875       -0.834
        3.87303       19.82232       10.22185        0.417
        3.96000       20.47301        8.85769        0.417
        4.89411       22.88145       19.53519       -0.834
        5.52943       22.39480       19.01006        0.417
        5.02176       22.55786       20.42695        0.417
       20.61830        3.10037       16.71571       -0.834
       21.29418        3.67346       16.35378        0.417
       20.17799        2.73438       15.94863        0.417
       21.77969       18.85554        6.19058       -0.834
       22.52655       18.56530        5.66694        0.417
       21.45754       19.63493        5.73780        0.417
        3.56482       24.02555       17.39946       -0.834
        4.46552       24.05149       17.07651        0.417
        3.62594       23.58219       18.24559        0.417
       16.05680       27.13331       15.45784       -0.834
       15.70290       26.56813       16.14454        0.417
       15.32255       27.27292       14.85983        0.417
        3.08254       20.53683       18.76951       -0.834
        3.65782       21.13085       19.25162        0.417
        3.01789       19.76088       19.32624        0.417
        9.48922       29.72124       20.56807       -0.834
        9.88305       28.97303       20.11940        0.417
        9.27216       30.33487       19.86624        0.417
       16.22698       15.53020        3.64213       -0.834
       16.18225       14.70201        3.16429        0.417
       15.40859       15.97684        3.42535        0.417
        6.92443       13.72199       18.70567       -0.834
        6.13931       13.22583       18.47405        0.417
        7.44858       13.11282       19.22567        0.417
        8.37110       20.03296       20.62763       -0.834
        8.49751       19.28152       20.04833        0.417
        7.86067       20.65368       20.10761        0.417
       26.87028       20.24019       26.61526       -0.834
       26.17292       20.67778       26.12696        0.417
       26.78264       19.31586       26.38252        0.417
       17.43509       14.45895        6.57155       -0.834
       17.06480       15.34125        6.54586        0.417
       18.18341       14.49531        5.97580        0.417
       13.30278       10.55245       16.48883       -0.834
       13.75956        9.71902       16.60277        0.417
       12.88186       10.71286       17.33341        0.417
       10.41678       12.38015       18.80035       -0.834
       11.15169       11.96088       19.24795        0.417
       10.80550       13.13179       18.35294        0.417
       17.28350        5.97270       19.00697       -0.834
       17.74036        5.43446       19.65335        0.417
       17.94698        6.16797       18.34523        0.417
       18.67383        8.36647        9.62189       -0.834
       18.57398        8.29204        8.67282        0.417
       17.77833        8.43662        9.95264        0.417
       27.62021       19.34220       14.98433       -0.834
       26.68184       19.40257       14.80529        0.417
       28.02105       19.21684       14.12419        0.417
        9.73350       23.02033       13.61697       -0.834
        8.96712       23.54583       13.38731        0.417
        9.38885       22.13657       13.74513        0.417
        8.77828        3.66802       18.31523       -0.834
        9.13509        4.24871       18.98731        0.417
        8.31339        2.99025       18.80587        0.417
       28.70830       17.07267        9.32630       -0.834
       29.63269       17.25013        9.50018        0.417
       28.59260       16.15172        9.56016        0.417
       14.13608       21.17229       13.28754       -0.834
       14.94467       21.37012       12.81502        0.417
       13.48832       21.77106       12.91591        0.417
       21.65808       24.22745        5.59674       -0.834
       22.48227       24.68479        5.43005        0.417
       20.98401       24.81620        5.25726        0.417
       13.63641       28.85670        7.64371       -0.834
       14.27234       28.96816        6.93702        0.417
       14.16909       28.69959        8.42332        0.417
       12.00805        4.14177       15.91900       -0.834
       12.73163        4.11328       16.54499        0.417
       11.39855        3.47060       16.22601        0.417
       24.12304       28.48581       18.91019       -0.834
       23.26108       28.89477       18.98766        0.417
       24.00449       27.79839       18.25472        0.417
       18.82546       25.64456       25.53813       -0.834
       17.90915       25.56801       25.80413        0.417
       18.79017       25.77487       24.59050        0.417
        7.85599       10.08049       25.92262       -0.834
        8.22795       10.39763       26.74561        0.417
        7.40596        9.26954       26.15940        0.417
        8.89268       20.82960       27.78515       -0.834
        9.46311       20.90717       28.54989        0.417
        8.07917       21.26017       28.04790        0.417
       18.99169       17.33850       28.02534       -0.834
       18.64010       18.22224       28.13317        0.417
       19.90950       17.47255       27.78896        0.417
        7.13728       10.79862       17.39892       -0.834
        7.89911       10.85302       17.97588        0.417
        7.42270       10.23906       16.67666        0.417
        3.56397       17.47036       23.07871       -0.834
        3.28950       18.11939       23.72652        0.417
        3.25952       16.63464       23.43242        0.417
       15.36932        6.33606       15.85907       -0.834
       16.27558        6.41577       15.56148        0.417
       15.19496        5.39494       15.84792        0.417
       21.61947       21.44485       27.65266       -0.834
       22.36704       21.78235       28.14607        0.417
       21.64829       21.91698       26.82049        0.417
       25.09253       14.08636       12.14793       -0.834
       26.02919       13.92631       12.26320        0.417
       24.96245       14.98290       12.45698        0.417
       25.83834        7.67078       16.54966       -0.834
       26.26045        7.34420       17.34427        0.417
       26.51792        7.61749       15.87767        0.417
       15.66276       26.12252        6.91300       -0.834
       15.88295       26.98552        6.56231        0.417
       16.50061       25.66219        6.96128        0.417
       18.16155       10.90005       12.05300       -0.834
       17.77056       11.18832       12.87778        0.417
       19.02982       10.58012       12.29791        0.417
       13.62122       25.35733        8.59864       -0.834
       13.36645       26.27811        8.65760        0.417
       14.24580       25.32707        7.87392        0.417
       13.09977       18.25585        7.84683       -0.834
       12.81484       19.02048        8.34723        0.417
       13.24254       17.57699        8.50637        0.417
       14.84002       26.47616       22.92484       -0.834
       14.53833       26.56061       23.82932        0.417
       14.37083       27.16238       22.45029        0.417
       16.78237       21.90116        5.28852       -0.834
       16.51500       21.28614        5.97153        0.417
       15.99068       22.04229        4.76935        0.417
       13.16889       13.30963       27.05634       -0.834
       13.78305       12.57840       26.99039        0.417
       13.21992       13.74345       26.20462        0.417
       23.30245        4.65835       16.41155       -0.834
       23.48250        4.02241       17.10393        0.417
       23.42622        4.16907       15.59821        0.417
       11.50815       28.73406       14.82926       -0.834
       12.00953       28.32139       14.12602        0.417
       12.15955       28.93920       15.49996        0.417
       27.15723       23.43488       16.52189       -0.834
       27.41986       22.75989       15.89609        0.417
       27.94563       23.60364       17.03781        0.417
       24.08116        8.63731        9.38021       -0.834
       23.71235        9.16105       10.09148        0.417
       23.36926        8.56002        8.74502        0.417
       20.15137       22.87161       18.37941       -0.834
       20.62219       22.03934       18.42287        0.417
       20.81481       23.50914       18.11553        0.417
       13.06695        6.49274       24.40433       -0.834
       13.47254        5.85949       23.81212        0.417
       13.15456        6.09958       25.27265        0.417
       20.14768       22.32377       22.79201       -0.834
       20.05000       23.26119       22.95914        0.417
       19.47191       22.12378       22.14427        0.417
       30.47944       15.29983       11.42437       -0.834
       29.75557       15.04882       10.85058        0.417
       30.13573       15.18192       12.30992        0.417
        5.49417        7.91719       11.47993       -0.834
        4.83378        7.55281       10.89057        0.417
        5.23586        8.83183       11.59367        0.417
        9.10239       28.65607       23.19494       -0.834
        9.38430       29.25772       22.50590        0.417
        8.86171       27.85467       22.73010        0.417
       19.59889        6.64695       17.61701       -0.834
       20.16253        6.29654       16.92726        0.417
       20.20511        6.93077       18.30125        0.417
       11.25835        4.27385       13.37545       -0.834
       11.84129        4.01000       14.08735        0.417
       11.83965        4.65809       12.71919        0.417
       18.40409       28.98606       25.60728       -0.834
       18.27207       28.24109       26.19364        0.417
       18.19144       28.64754       24.73755        0.417
        3.35043       13.15438       16.10696       -0.834
        2.94582       12.53840       16.71776        0.417
        4.02535       12.64225       15.66148        0.417
        7.12820       24.48980       12.81486       -0.834
        6.38306       23.88905       12.82421        0.417
        6.74771       25.34074       12.59723        0.417
        6.60179       13.27265       11.59010       -0.834
        6.80936       13.50819       12.49435        0.417
        5.82444       13.79006       11.37973        0.417
       17.56316       19.84229       28.13547       -0.834
       16.66739       19.51641       28.04823        0.417
       17.59281       20.61627       27.57306        0.417
       11.85368       15.09893       22.69468       -0.834
       11.59179       14.25208       23.05592        0.417
       11.92787       14.94546       21.75278        0.417
       24.34401       20.67311       15.89781       -0.834
       23.40839       20.57287       16.07332        0.417
       24.53997       19.99811       15.24804        0.417
       29.18424       14.05656       20.06808       -0.834
       29.73816       14.68628       20.52946        0.417
       29.79159       13.38501       19.75762        0.417
       28.02607       13.45418       26.19235       -0.834
       27.31624       13.94072       25.77325        0.417
       28.21978       12.74081       25.58421        0.417
       21.63590        6.41119       19.60908       -0.834
       22.59058        6.44186       19.54692        0.417
       21.44028        6.76728       20.47578        0.417
        6.20368       24.86103       16.56460       -0.834
        7.05167       24.41845       16.52890        0.417
        6.28096       25.57883       15.93609        0.417
       10.51199       23.44283       22.08734       -0.834
       10.74359       24.32210       21.78823        0.417
       10.61872       23.47684       23.03797        0.417
       25.30550       15.65916       27.01009       -0.834
       24.86417       16.50575       26.94126        0.417
       26.23839       15.87323       26.99884        0.417
       21.82329        7.07608       13.78893       -0.834
       22.73302        6.94112       13.52357        0.417
       21.37548        6.27108       13.52880        0.417
       21.21472       14.22770       23.97789       -0.834
       21.82660       13.80801       24.58261        0.417
       20.59102       14.68194       24.54437        0.417
       24.57285        8.90788       22.77454       -0.834
       24.98820        9.73094       23.03200        0.417
       23.82721        9.17344       22.23627        0.417
       17.78065       10.01879       25.98914       -0.834
       18.67180        9.89153       26.31456        0.417
       17.36253        9.16415       26.09399        0.417
       17.97299       22.21535       26.76291       -0.834
       18.82320       22.64326       26.86426        0.417
       17.70978       22.41431       25.86437        0.417
       23.00914       12.84624       26.00310       -0.834
       23.15872       11.91833       26.18433        0.417
       23.83118       13.15133       25.61919        0.417
       16.31036       11.11930        5.16737       -0.834
       15.48647       11.54649        5.40179        0.417
       16.88401       11.27637        5.91736        0.417
       10.45957       15.07467       30.21495       -0.834
        9.81196       14.37344       30.14358        0.417
       10.37081       15.56727       29.39905        0.417
       24.93971       13.86261        5.27802       -0.834
       24.37081       13.47522        5.94324        0.417
       25.43690       13.12357        4.92752        0.417
       13.76502       30.21103       15.63373       -0.834
       13.85794       30.93199       15.01099        0.417
       14.63215       30.12227       16.02924        0.417
       16.10930       30.65806       23.79626       -0.834
       16.60434       29.89098       23.50861        0.417
       16.72585       31.15315       24.33568        0.417
       13.89000       29.08027       19.07629       -0.834
       13.91719       29.92984       19.51643        0.417
       14.55769       29.14239       18.39323        0.417
        9.61943        5.26566       20.55668       -0.834
       10.31759        4.63310       20.72605        0.417
        9.45592        5.67574       21.40599        0.417
       10.94669       22.96824       27.15064       -0.834
       10.79116       23.83797       27.51889        0.417
       10.72443       22.36433       27.85925        0.417
       20.83459       13.76242       27.46258       -0.834
       20.94278       13.20102       28.23028        0.417
       21.28933       13.29818       26.75978        0.417
       16.65712       17.69372       11.57625       -0.834
       16.91399       18.34999       10.92852        0.417
       16.45141       16.91448       11.05982        0.417
       25.33301       16.95029       16.00255       -0.834
       26.06936       16.58450       15.51243        0.417
       25.03004       17.68438       15.46818        0.417