%Nproc=32
%Mem=120Gb
%chk=temp.chk
#p cam-b3lyp/6-31+G(d,p) nosymm charge Freq 

Calculation for S0 with freq for abs spect

0  1
 C         16.04845       15.52956       15.74438
 C         16.48485       16.38332       17.95806
 C         17.24087       17.38107       17.47094
 C         17.34328       17.61238       15.99775
 N         16.86896       16.56361       15.24868
 H         16.21863       16.19760       18.97175
 H         17.82184       18.01689       18.05567
 O         18.03721       18.53877       15.58728
 O         15.45574       14.66609       15.12311
 N         15.88408       15.52634       17.07697
 H         15.16764       14.86554       17.34545
 H         17.04721       16.60172       14.23311
 O         20.77462       19.43387       14.99745
 H         20.10498       19.25673       15.65809
 H         21.03080       18.56887       14.67747
 O         16.71991       13.83531       12.88284
 H         16.38181       13.84170       13.77831
 H         17.12226       14.69675       12.77207
 O         13.25826       13.01019       13.62980
 H         13.73617       13.81721       13.82102
 H         13.84417       12.51402       13.05817
 O         14.30853       18.50376       15.36433
 H         13.53410       18.99128       15.08360
 H         14.45580       18.78625       16.26696
 O         17.83289       16.31283       12.54279
 H         17.56043       16.79101       11.75964
 H         18.72716       16.02971       12.35213
 O         20.51821       15.02749       18.86682
 H         20.89439       14.15360       18.97182
 H         19.95995       14.95701       18.09247
 O         18.35571       21.52766       17.23350
 H         17.70239       20.91135       17.56450
 H         17.86286       22.32970       17.06009
 O         20.24305       19.73213       18.01253
 H         19.54994       20.33684       17.74768
 H         20.29283       19.82596       18.96382
 O         16.20524       20.21056       14.39723
 H         16.86561       19.77584       14.93683
 H         15.37833       19.80344       14.65551
 O         21.05268       14.26165       15.94712
 H         21.05351       13.97978       15.03237
 H         20.46595       13.64659       16.38723
 O         14.57347       11.10257       16.17989
 H         14.65573       12.04969       16.29138
 H         13.67005       10.90904       16.43010
 O         16.75429       19.98683       19.71880
 H         17.48954       19.37788       19.78821
 H         16.98200       20.70614       20.30784
 O         14.10822       15.92384       13.08698
 H         14.88880       16.35363       13.43656
 H         14.29057       15.81757       12.15334
 O         13.07509       18.23764       19.16136
 H         12.72318       17.49250       19.64834
 H         12.31318       18.62296       18.72864
 O         18.55624       18.13279       20.86667
 H         17.80037       18.09951       21.45300
 H         19.30671       17.94987       21.43197
 O         14.96865       19.66569       17.80863
 H         15.69509       19.78033       18.42130
 H         14.31494       19.16980       18.30156
 O         13.44579       14.16482       18.21028
 H         13.02331       14.65345       18.91667
 H         13.34108       13.24616       18.45793
 O         15.44063       18.38616       11.71355
 H         14.72665       18.70671       11.16246
 H         15.34141       18.86409       12.53694
 O         21.86345       17.31983       18.47159
 H         21.17266       17.86573       18.09604
 H         21.40598       16.54544       18.79908
 O         12.17246       16.00852       16.62546
 H         12.76993       16.53244       16.09182
 H         12.74432       15.42067       17.11905
 
       15.80205       23.02426       23.39809       -0.834
       14.95671       22.77900       23.77422        0.417
       16.43850       22.81627       24.08212        0.417
       18.65914       11.91427       25.77724       -0.834
       17.98806       11.25052       25.61809        0.417
       18.88887       12.23702       24.90586        0.417
       19.78132        8.25649       22.59899       -0.834
       19.75693        8.11487       21.65264        0.417
       18.86129        8.31366       22.85688        0.417
       22.34139       22.38729        5.45515       -0.834
       21.64800       21.79679        5.16062        0.417
       22.07193       22.65440        6.33394        0.417
       14.59108       21.23905       29.74661       -0.834
       15.31419       21.02729       29.15626        0.417
       13.81877       20.86234       29.32486        0.417
       26.96960       11.53939       12.58064       -0.834
       26.59488       10.85089       12.03128        0.417
       26.34713       11.63684       13.30124        0.417
       15.05631        7.34964       16.17711       -0.834
       15.99755        7.19079       16.24825        0.417
       14.68909        6.50422       15.91895        0.417
       11.07287       14.15058       30.29411       -0.834
       11.85007       13.61206       30.14518        0.417
       10.57885       13.67875       30.96459        0.417
       19.88039       10.01684       14.49432       -0.834
       20.43055        9.99044       15.27717        0.417
       19.11855       10.53504       14.75375        0.417
       12.77872       28.08378       23.68145       -0.834
       13.23478       28.70800       23.11701        0.417
       13.37063       27.95321       24.42228        0.417
       16.47024       29.83092       13.57095       -0.834
       17.17052       29.58158       14.17400        0.417
       16.72112       30.70006       13.25807        0.417
        5.78789       11.46189       10.87890       -0.834
        5.20202       12.21476       10.80025        0.417
        6.43383       11.72781       11.53334        0.417
       17.37416       11.63292        7.75397       -0.834
       18.13368       11.48008        8.31611        0.417
       17.74732       11.89532        6.91247        0.417
        7.42754       17.69628       23.46644       -0.834
        8.22203       17.82537       23.98446        0.417
        6.98947       18.54719       23.48282        0.417
       11.39648       16.71121       13.85957       -0.834
       10.93572       16.82520       13.02834        0.417
       12.25281       16.36153       13.61330        0.417
       17.69940       28.97142       18.98209       -0.834
       17.83810       29.91852       18.98344        0.417
       17.88821       28.69994       19.88035        0.417
       21.86232        3.08883       14.70819       -0.834
       22.38218        2.30945       14.90454        0.417
       22.39421        3.81842       15.02605        0.417
       20.86291       15.94284       11.93320       -0.834
       21.29167       16.35175       12.68499        0.417
       20.84667       15.00942       12.14461        0.417
       23.62576       10.71225       20.36478       -0.834
       23.57688       10.47760       19.43808        0.417
       24.38359       11.29383       20.42543        0.417
        5.62231       18.41350       12.66414       -0.834
        5.44333       19.31256       12.93964        0.417
        6.52682       18.43384       12.35161        0.417
       13.22534       20.20179        6.13126       -0.834
       13.45579       21.10528        6.34770        0.417
       14.02056       19.70109        6.31333        0.417
        6.23556       26.34308       19.71941       -0.834
        6.55570       25.44673       19.82086        0.417
        5.31994       26.24286       19.45898        0.417
       29.68165       23.65043       19.81248       -0.834
       29.43534       24.57427       19.85869        0.417
       29.04425       23.26179       19.21339        0.417
        4.01216       16.81958       21.55539       -0.834
        3.93817       17.55395       22.16486        0.417
        3.36963       16.18263       21.86795        0.417
        4.13808       16.95009       10.30202       -0.834
        4.59390       16.65919        9.51218        0.417
        4.77117       17.50930       10.75225        0.417
       19.23055       23.86288       19.96387       -0.834
       18.47050       23.39061       19.62402        0.417
       19.06446       23.94056       20.90335        0.417
       21.76680       10.39669       25.47226       -0.834
       22.55357        9.93137       25.18820        0.417
       21.43231       10.81053       24.67660        0.417
       15.91290       16.12602        4.02367       -0.834
       15.93003       16.45639        4.92189        0.417
       15.06639       15.68603        3.94590        0.417
       22.72738       15.60568       21.07398       -0.834
       22.81200       14.92913       20.40215        0.417
       21.87023       15.44582       21.46892        0.417
       26.71770        9.89913       22.64111       -0.834
       26.88033       10.75066       23.04693        0.417
       27.58839        9.51950       22.52272        0.417
       23.78353       10.29117       17.47949       -0.834
       24.47889        9.76716       17.08184        0.417
       24.02275       11.19674       17.28215        0.417
        6.70756       20.20830       23.25503       -0.834
        6.10701       20.49179       23.94438        0.417
        7.30252       20.94858       23.13568        0.417
       28.35869       26.09491       20.25668       -0.834
       28.44035       26.93338       19.80221        0.417
       27.42527       26.01919       20.45471        0.417
       21.67263       22.18346       17.34766       -0.834
       20.80524       22.39507       17.69275        0.417
       21.53873       22.08656       16.40484        0.417
       12.22609       21.92340       14.13772       -0.834
       11.61959       21.23427       13.86662        0.417
       12.52485       21.65232       15.00575        0.417
       12.98507        7.17378       12.79752       -0.834
       12.85571        7.84729       13.46527        0.417
       13.32748        7.64904       12.04048        0.417
       15.31576        5.23902        8.42995       -0.834
       15.80363        5.44785        9.22657        0.417
       14.39621        5.30873        8.68647        0.417
       12.99554        8.04863        3.94582       -0.834
       13.46566        8.65420        4.51897        0.417
       12.23521        7.77430        4.45854        0.417
       21.21162       16.40826        9.37617       -0.834
       20.78433       16.19069       10.20462        0.417
       22.08164       16.71728        9.62877        0.417
       10.99085        9.83617       21.68564       -0.834
       11.87819       10.13166       21.88946        0.417
       10.48480       10.64322       21.59169        0.417
        9.03177       20.96041       20.52462       -0.834
        8.89180       21.44038       21.34087        0.417
        8.76634       20.06294       20.72541        0.417
       28.23105       22.48049       22.49366       -0.834
       28.20986       22.81934       21.59869        0.417
       28.11451       23.25365       23.04582        0.417
       11.63555        4.44769       18.79144       -0.834
       12.39747        3.86890       18.81833        0.417
       11.96222        5.25627       18.39683        0.417
        7.70832       22.58384       12.49822       -0.834
        7.94737       23.47880       12.73935        0.417
        7.50953       22.15588       13.33103        0.417
       12.27045       21.22446       19.96569       -0.834
       11.56217       20.99175       19.36534        0.417
       12.72068       21.95135       19.53539        0.417
        4.07516        9.46015       12.86961       -0.834
        4.79142        9.33567       13.49227        0.417
        4.31345       10.25016       12.38450        0.417
       25.79069       12.21666       20.83607       -0.834
       25.77075       13.06442       20.39207        0.417
       26.53897       12.27445       21.43018        0.417
       16.48989       12.40324        5.00029       -0.834
       16.97764       13.06818        5.48628        0.417
       16.75235       12.53147        4.08875        0.417
        5.01288       23.63676        9.71371       -0.834
        5.89729       23.37446        9.45826        0.417
        5.11587       24.00539       10.59107        0.417
        8.38918       25.75815       23.95374       -0.834
        8.56312       25.66815       23.01679        0.417
        7.50735       25.40422       24.06921        0.417
        8.21026       14.47758        8.80331       -0.834
        8.95168       14.36954        8.20761        0.417
        8.59623       14.42995        9.67795        0.417
       16.34022       25.90216        6.15283       -0.834
       15.64611       25.37563        6.54934        0.417
       16.75955       26.34240        6.89214        0.417
       17.76445       15.53062       22.56542       -0.834
       17.07937       16.19897       22.55128        0.417
       17.28986       14.69984       22.53717        0.417
        4.47542        9.78313       18.79777       -0.834
        4.42244        8.91843       19.20485        0.417
        3.65887       10.21608       19.04684        0.417
       30.17841       16.77147        9.21310       -0.834
       29.34332       16.30468        9.18205        0.417
       30.82785       16.11920        8.95040        0.417
       11.56322       11.40017       26.08518       -0.834
       12.07791       10.81188       26.63766        0.417
       10.65531       11.23526       26.33961        0.417
       12.82673       13.26714        8.65451       -0.834
       13.48180       13.43696        7.97755        0.417
       12.06187       13.77335        8.38071        0.417
       23.94142       19.10136       17.09667       -0.834
       23.37307       19.86932       17.03795        0.417
       23.71420       18.69814       17.93453        0.417
       18.05871       28.48806       21.65708       -0.834
       17.85633       29.29508       22.13036        0.417
       17.78602       27.78753       22.24964        0.417
       15.59050        7.06109       21.19115       -0.834
       16.31173        6.70882       20.66965        0.417
       15.28198        6.31670       21.70780        0.417
       22.26843       19.24582        5.82091       -0.834
       22.99840       19.74735        6.18407        0.417
       21.66213       19.13944        6.55393        0.417
        5.86432       19.73637        6.96212       -0.834
        5.58284       20.52375        6.49624        0.417
        6.77863       19.61892        6.70427        0.417
       18.70298        7.92583        7.48378       -0.834
       19.02499        8.60658        8.07465        0.417
       18.01925        8.35688        6.97100        0.417
       10.20368        8.11135       18.06307       -0.834
        9.94935        7.34033       18.57011        0.417
       11.15915        8.06876       18.02455        0.417
       23.79415       19.56013       14.27433       -0.834
       24.29665       18.87295       14.71195        0.417
       22.94415       19.15837       14.09455        0.417
       23.36535        3.62841       18.81822       -0.834
       22.93798        2.83996       18.48365        0.417
       23.88250        3.32315       19.56361        0.417
        9.19765       10.55644       10.28385       -0.834
        9.41980       10.62290       11.21254        0.417
        8.89641        9.65465       10.17310        0.417
       20.54752       23.80832       11.68443       -0.834
       21.13490       24.38260       12.17580        0.417
       20.90476       22.93011       11.81622        0.417
        7.79484       16.29854       14.51881       -0.834
        7.38878       15.96422       13.71908        0.417
        7.44478       15.74362       15.21577        0.417
       18.48698       23.06511        8.50183       -0.834
       17.56389       22.94734        8.27760        0.417
       18.47960       23.68525        9.23094        0.417
       23.76195       19.20202       25.61554       -0.834
       24.05546       19.10880       26.52185        0.417
       23.22893       18.42342       25.45462        0.417
       15.32340       14.00609        9.91220       -0.834
       15.66817       13.59203       10.70335        0.417
       14.48494       13.57041        9.75922        0.417
       15.06445       17.21458        6.90344       -0.834
       15.56772       18.02438        6.81878        0.417
       15.13176       16.98599        7.83050        0.417
       28.08748       16.54458       25.30985       -0.834
       28.35193       17.19589       25.95954        0.417
       27.78948       15.79657       25.82745        0.417
       25.64607        5.95989       21.17564       -0.834
       25.51572        6.72671       20.61775        0.417
       25.83529        6.32220       22.04118        0.417
       12.22971       22.97119       11.50072       -0.834
       11.47424       22.90510       10.91666        0.417
       12.03230       22.36840       12.21759        0.417
       26.32457        5.61043       14.66982       -0.834
       27.06491        6.08594       14.29297        0.417
       26.18273        4.87541       14.07329        0.417
       17.82958       22.31542       25.02555       -0.834
       17.63984       22.06134       25.92870        0.417
       18.35321       23.11270       25.10550        0.417
       13.85976       10.25473       22.67534       -0.834
       13.79818       11.20766       22.60930        0.417
       13.79142       10.07423       23.61288        0.417
       21.78087       25.63562       13.54593       -0.834
       20.97840       26.14212       13.67138        0.417
       22.24757       25.71546       14.37782        0.417
       30.83285       10.69849       18.26249       -0.834
       30.24716       11.37912       18.59408        0.417
       31.68850       11.12404       18.20757        0.417
       20.79355       13.38199       13.22062       -0.834
       21.23200       12.80421       12.59600        0.417
       20.30212       12.79048       13.79058        0.417
       24.78741       13.33667       24.29112       -0.834
       25.55354       12.86000       23.97164        0.417
       24.85999       14.20328       23.89118        0.417
        5.84031       14.49271       15.59722       -0.834
        5.16042       14.17775       16.19285        0.417
        5.37984       15.07705       14.99493        0.417
       18.05180       26.11376       13.06444       -0.834
       18.26428       26.06805       13.99664        0.417
       17.11345       25.92939       13.02285        0.417
       18.17376       18.91096        2.51180       -0.834
       18.51820       18.35429        3.21017        0.417
       18.55459       18.55315        1.70982        0.417
       17.16523        5.58004       10.97652       -0.834
       17.35830        4.64364       11.02251        0.417
       16.50639        5.72289       11.65604        0.417
       11.25775       24.69725       20.02590       -0.834
       10.65034       24.96551       19.33647        0.417
       11.95092       24.22503       19.56465        0.417
       27.00954       10.08677       17.69658       -0.834
       26.39195        9.79299       18.36629        0.417
       27.85713       10.10029       18.14114        0.417
        9.67319       21.04143        4.42132       -0.834
       10.51544       21.26046        4.02274        0.417
        9.02785       21.23897        3.74250        0.417
        8.39446       15.78475        5.43699       -0.834
        7.88254       16.59089        5.37140        0.417
        9.30574       16.07728        5.42220        0.417
       21.93128       14.95038        6.91632       -0.834
       21.92945       15.45263        6.10148        0.417
       21.97561       15.61244        7.60621        0.417
       26.80433       15.01848       27.19982       -0.834
       25.95143       14.59202       27.11660        0.417
       27.17583       14.65710       28.00457        0.417
        5.01668        9.45050       15.87074       -0.834
        4.75793        9.41561       16.79164        0.417
        5.80869        8.91503       15.82354        0.417
        7.82925       20.40939       28.74334       -0.834
        7.41073       21.24636       28.54198        0.417
        8.73174       20.51369       28.44190        0.417
       23.75222        7.87640        6.07874       -0.834
       23.35322        8.49371        6.69190        0.417
       23.01075        7.41963        5.68147        0.417
       11.80935       11.13374       16.37697       -0.834
       11.69630       11.95830       15.90416        0.417
       10.93227       10.75147       16.40588        0.417
       24.04474       19.04448       28.47171       -0.834
       23.72964       18.59369       29.25512        0.417
       24.88773       18.63316       28.28087        0.417
       12.91463       12.26144        2.85546       -0.834
       13.65085       11.65311        2.91970        0.417
       12.20509       11.74063        2.47924        0.417
       10.64955       13.78866       15.93028       -0.834
       11.12027       14.62163       15.95898        0.417
       10.20664       13.79241       15.08173        0.417
       10.52939       13.80683       20.90191       -0.834
        9.76227       13.36559       21.26671        0.417
       10.34748       13.86844       19.96418        0.417
       20.04028       30.71209       20.10243       -0.834
       19.83952       30.29136       20.93844        0.417
       20.03720       29.99645       19.46676        0.417
        7.56369       23.24208        8.76349       -0.834
        7.67343       24.19298        8.76679        0.417
        7.88412       22.96649        7.90465        0.417
       14.11739       27.27632        8.66217       -0.834
       14.32438       27.76638        7.86642        0.417
       13.78227       27.93570        9.26975        0.417
       13.63350       10.42895        6.57442       -0.834
       12.77354       10.33198        6.98344        0.417
       13.86068       11.34907        6.70860        0.417
       22.51373       11.94031        3.67681       -0.834
       22.48900       11.19341        3.07867        0.417
       23.41651       12.25512        3.63044        0.417
       20.27134        7.14353       17.21240       -0.834
       20.85916        7.26278       17.95838        0.417
       20.48209        6.27185       16.87775        0.417
       15.90987       24.19888       28.15484       -0.834
       15.77385       24.32715       29.09361        0.417
       16.49109       23.44045       28.09798        0.417
       24.51328       23.70838       18.18494       -0.834
       23.71024       23.35793       17.79952        0.417
       24.54251       23.33030       19.06382        0.417
        6.33749       14.36148       12.03787       -0.834
        6.98929       14.81818       11.50607        0.417
        6.81680       13.63207       12.43089        0.417
       24.50303       15.80832       23.34979       -0.834
       25.31749       16.31097       23.36528        0.417
       24.12033       15.99780       22.49313        0.417
       15.69105       24.81147       14.91768       -0.834
       15.05332       25.43111       15.27206        0.417
       15.25512       24.42704       14.15714        0.417
       11.14741       24.04662       15.32493       -0.834
       10.84999       24.34393       14.46505        0.417
       11.68726       23.27820       15.13969        0.417
       21.55961       12.76352       20.01001       -0.834
       20.68069       12.41973       20.16983        0.417
       22.14400       12.03470       20.21868        0.417
       11.46326       25.09319       26.40304       -0.834
       12.11811       24.40431       26.51639        0.417
       11.78399       25.81951       26.93767        0.417
       12.89012       12.76352       21.85591       -0.834
       13.35182       13.26475       21.18372        0.417
       12.01689       13.15416       21.88915        0.417
       23.52110        7.94629       12.95035       -0.834
       24.40659        8.28729       12.82442        0.417
       23.50940        7.12285       12.46245        0.417
       15.99709        6.52522       28.60207       -0.834
       15.14505        6.39742       28.18505        0.417
       16.24465        7.42093       28.37261        0.417
       10.65637       23.32191       22.41256       -0.834
       10.99649       24.10942       22.83727        0.417
       11.09706       23.29796       21.56318        0.417
        4.55629       21.03972       15.27650       -0.834
        4.85581       21.27128       14.39735        0.417
        5.36071       20.94043       15.78570        0.417
       16.92467       18.48663       25.39562       -0.834
       17.84962       18.72631       25.33854        0.417
       16.60397       18.95006       26.16932        0.417
       16.48589        9.42218        5.83069       -0.834
       17.20955       10.04348        5.91141        0.417
       15.71486        9.96974        5.68261        0.417
        2.08887       18.84054       19.73045       -0.834
        2.83551       19.03862       20.29572        0.417
        1.86379       17.93388       19.93910        0.417
       24.46361        9.26071       24.89069       -0.834
       24.08539        8.40119       24.70517        0.417
       25.20687        9.33022       24.29156        0.417
        6.38780       24.21067       16.44610       -0.834
        7.24746       24.62260       16.53295        0.417
        6.43074       23.44312       17.01645        0.417
        6.52059       19.87472        9.73678       -0.834
        7.39852       19.57715        9.49817        0.417
        5.99429       19.72345        8.95170        0.417
       30.87429       18.94612       21.45947       -0.834
       30.39302       19.08019       22.27595        0.417
       30.40724       19.47838       20.81542        0.417
        2.45769       19.60443       15.73074       -0.834
        1.86056       19.96280       16.38742        0.417
        3.11268       20.29049       15.60212        0.417
       15.84509        6.80391       25.40663       -0.834
       15.50955        7.01469       24.53530        0.417
       16.77766        6.63640       25.27063        0.417
       12.05805       15.55357       23.81144       -0.834
       11.27743       15.01947       23.95843        0.417
       12.08071       16.15531       24.55550        0.417
       21.26702       25.96709       23.19043       -0.834
       21.81244       25.62984       22.47979        0.417
       21.88630       26.37641       23.79474        0.417
       11.07662       29.42391       20.87162       -0.834
       10.24659       29.52975       20.40678        0.417
       10.86011       29.58721       21.78960        0.417
       24.02988       25.76578       11.78399       -0.834
       23.74723       25.55110       10.89503        0.417
       23.27534       25.55379       12.33350        0.417
       17.45246       21.60103       21.82502       -0.834
       16.99497       22.21704       22.39727        0.417
       18.29524       21.45491       22.25466        0.417
       13.99019        9.23773       19.95168       -0.834
       14.67744        8.57191       19.92683        0.417
       13.70243        9.25165       20.86449        0.417
       20.04861        8.53041       26.72709       -0.834
       19.84067        7.96648       25.98212        0.417
       20.47952        9.29184       26.33878        0.417
       25.61763       25.95729       22.55739       -0.834
       26.29712       25.40086       22.93806        0.417
       25.60665       26.73674       23.11287        0.417
       15.93349       19.71604        6.60765       -0.834
       16.79117       20.10507        6.77875        0.417
       15.93897       19.52606        5.66951        0.417
       10.29231       18.24741       24.21441       -0.834
       10.82129       17.90972       24.93717        0.417
       10.77184       19.01571       23.90458        0.417
       16.03847       22.30589        7.81879       -0.834
       15.57594       21.50096        7.58561        0.417
       15.34704       22.96087        7.91448        0.417
        8.13095       22.43092       22.73051       -0.834
        8.90489       22.82197       22.32514        0.417
        7.42878       23.05949       22.56295        0.417
       14.27524       11.35053       11.71946       -0.834
       14.71429       11.13316       10.89713        0.417
       13.34737       11.40152       11.48992        0.417
       15.61687       19.40349       27.79607       -0.834
       15.88409       18.65891       28.33497        0.417
       14.66838       19.30857       27.70899        0.417
       19.26527       15.81146        6.82124       -0.834
       18.74766       15.55005        7.58280        0.417
       20.17400       15.74589        7.11473        0.417
       13.32935       25.56499       16.02928       -0.834
       12.54338       25.03149       15.91153        0.417
       13.10148       26.41459       15.65180        0.417
       28.83031       21.10999       12.90025       -0.834
       28.24308       20.71253       12.25726        0.417
       29.43790       20.40892       13.13597        0.417
       27.88665        6.73124       17.29489       -0.834
       28.67701        7.26403       17.20713        0.417
       27.78958        6.30390       16.44390        0.417
       18.68978       27.95887       10.85591       -0.834
       19.35243       28.46361       11.32745        0.417
       18.65279       27.12111       11.31746        0.417
       17.79528       17.42697       10.01820       -0.834