%Nproc=32
%Mem=120Gb
%chk=temp.chk
#p cam-b3lyp/6-31+G(d,p) nosymm charge Freq 

Calculation for S0 with freq for abs spect

0  1
 C         15.31778       16.58447       15.46288
 C         16.41141       15.82944       17.56472
 C         17.55990       16.54348       17.39689
 C         17.72160       17.21696       16.12448
 N         16.55501       17.22567       15.33725
 H         16.18779       15.36289       18.56860
 H         18.33286       16.53784       18.12303
 O         18.77419       17.80190       15.75704
 O         14.38612       16.63798       14.70196
 N         15.37865       15.87104       16.63506
 H         14.61562       15.21885       16.79957
 H         16.55843       17.94146       14.59170
 O         20.52913       17.92250       13.62926
 H         19.71844       18.07748       14.11401
 H         20.27199       17.97452       12.70871
 O         16.94943       21.83731       14.82194
 H         16.89660       21.37286       15.65724
 H         17.85015       21.70098       14.52809
 O         16.34302       20.20540       17.12047
 H         15.55407       19.85066       17.53028
 H         17.05027       19.97679       17.72360
 O         11.60387       17.04623       15.72125
 H         11.88561       16.33720       16.29929
 H         12.22802       17.75290       15.88644
 O         16.84813       14.88544       13.57357
 H         17.62879       14.87657       14.12740
 H         17.06615       15.48636       12.86111
 O         18.69475       11.91490       15.60055
 H         18.45590       12.69529       16.10073
 H         17.86051       11.48307       15.41668
 O         12.81506       17.05235       12.46828
 H         13.34304       16.92712       13.25681
 H         13.20241       16.46028       11.82357
 O         15.10397       12.93450       14.04027
 H         15.54568       13.75308       13.81432
 H         14.41332       12.84529       13.38355
 O         19.60751       14.93419       14.24518
 H         20.00496       14.06498       14.19278
 H         20.18760       15.42882       14.82403
 O         14.45686       20.79928       14.07020
 H         15.05916       20.06745       13.93646
 H         14.89685       21.35823       14.71068
 O         12.92920       19.43635       15.75444
 H         13.14001       19.62728       16.66841
 H         13.47480       20.04061       15.25103
 O         18.60511       14.08739       19.61163
 H         18.65611       13.39735       20.27305
 H         18.07310       13.70965       18.91127
 O         16.98343       12.88057       17.78754
 H         16.85796       12.12754       18.36499
 H         16.48300       12.66543       17.00045
 O         21.05942       19.35725       16.91905
 H         20.24650       18.98992       16.57198
 H         21.59877       18.59391       17.12555
 O         16.83363       19.23776       12.95216
 H         17.13834       20.01221       12.47928
 H         17.07315       18.50247       12.38807
 O         12.88120       14.50657       16.59729
 H         12.00850       14.46989       16.98880
 H         12.73780       14.30690       15.67219
 O         18.82802       19.98593       18.93936
 H         19.53164       20.43873       18.47447
 H         19.24510       19.20575       19.30485
 O         16.99683       16.44942       21.39906
 H         17.72177       16.43753       22.02400
 H         17.37269       16.10497       20.58893
 O         13.34716       13.62764       19.30434
 H         13.53292       13.93914       18.41851
 H         13.10442       12.70886       19.18967
 
       29.09499       16.60082       10.77126       -0.834
       28.90116       16.72133       11.70085        0.417
       28.81459       15.70544       10.58176        0.417
       12.20725        9.37662        8.04439       -0.834
       12.76954        9.45508        7.27374        0.417
       12.80502        9.14427        8.75497        0.417
        5.86935       23.58724       22.48197       -0.834
        6.08407       22.73307       22.10711        0.417
        5.14042       23.41179       23.07704        0.417
       21.82044       14.79810       15.95860       -0.834
       21.41585       14.58261       16.79890        0.417
       22.35807       15.56860       16.14168        0.417
       21.76313        9.60711       18.82162       -0.834
       22.52883        9.47163       19.37982        0.417
       21.58521        8.74530       18.44498        0.417
       10.20256       21.10220       13.01852       -0.834
       10.95500       20.55051       12.80475        0.417
       10.33879       21.90149       12.50979        0.417
       13.18835       11.98781       29.51704       -0.834
       13.64662       12.79123       29.76350        0.417
       12.35397       12.28831       29.15683        0.417
       11.99982       19.03514        6.26311       -0.834
       11.94427       19.94805        6.54549        0.417
       11.94317       18.52931        7.07376        0.417
        9.75755       11.95853       21.43917       -0.834
        8.98904       11.96802       20.86862        0.417
        9.90224       11.03208       21.63150        0.417
       13.32658       30.56986       13.77063       -0.834
       13.68699       31.27698       14.30572        0.417
       13.22163       29.83824       14.37887        0.417
       12.85983       25.02772       19.18290       -0.834
       12.56261       25.34522       20.03559        0.417
       13.10174       24.11464       19.33781        0.417
       20.97598       20.03085       26.83693       -0.834
       20.20897       20.34059       27.31858        0.417
       21.50623       20.81583       26.69960        0.417
       23.78163        9.40092        8.72489       -0.834
       22.85203        9.53382        8.91039        0.417
       23.82240        8.54062        8.30721        0.417
       15.49840       23.99430       25.18624       -0.834
       15.74882       24.54284       24.44285        0.417
       14.54458       23.93598       25.13092        0.417
       19.75910        6.68448        7.76633       -0.834
       20.30209        6.29113        8.44946        0.417
       18.92829        6.21195        7.81835        0.417
       16.72172       26.97743       15.98422       -0.834
       17.34636       26.28593       15.76539        0.417
       16.18381       27.07248       15.19819        0.417
       17.01654       23.44805        6.90638       -0.834
       17.30827       24.35544        6.99445        0.417
       16.09635       23.46520        7.16942        0.417
       27.84489       16.76680       24.69443       -0.834
       27.71847       17.58074       25.18203        0.417
       28.09345       16.12479       25.35947        0.417
       27.11108       14.65261       11.51676       -0.834
       27.12604       13.81587       11.05214        0.417
       26.18524       14.89368       11.54723        0.417
       10.92559       15.63409        5.87025       -0.834
       10.28666       14.93636        5.72474        0.417
       10.42038       16.44299        5.78859        0.417
       25.56267        4.67013       17.13485       -0.834
       24.95156        5.10863       17.72688        0.417
       25.00716        4.29359       16.45232        0.417
       17.86339       26.25499        7.40571       -0.834
       18.58041       26.47894        6.81245        0.417
       17.90021       26.92351        8.08978        0.417
        8.08121        8.12908       25.27451       -0.834
        8.95705        7.99992       24.91057        0.417
        8.22080        8.19178       26.21940        0.417
       22.69604       15.60946       22.92137       -0.834
       23.16856       15.77808       23.73655        0.417
       22.11462       14.87768       23.12796        0.417
       18.90549        5.53295       12.71399       -0.834
       18.80379        6.40785       13.08874        0.417
       19.65934        5.16168       13.17236        0.417
        2.84952       11.78613       11.99242       -0.834
        2.11978       11.99922       12.57405        0.417
        2.93013       12.54853       11.41929        0.417
        8.85408       16.62429        2.95445       -0.834
        8.94820       17.01225        2.08448        0.417
        9.15472       17.30623        3.55513        0.417
       25.18749       21.71722       15.13281       -0.834
       24.91445       22.04546       15.98951        0.417
       24.84983       20.82215       15.10000        0.417
       21.59964       18.10324       23.37658       -0.834
       21.83282       17.30855       22.89666        0.417
       21.19128       17.78602       24.18209        0.417
       13.15399       26.44135       12.13611       -0.834
       13.26873       25.52243       11.89395        0.417
       12.36201       26.45079       12.67362        0.417
       23.82862       20.93031       20.09727       -0.834
       24.34880       20.20310       20.43903        0.417
       23.28586       21.20524       20.83623        0.417
       19.81266       14.63575        3.87512       -0.834
       20.31161       14.67503        4.69105        0.417
       19.97022       15.48201        3.45649        0.417
       21.49344       16.67276       28.90276       -0.834
       20.70951       17.21685       28.97790        0.417
       22.02343       16.90904       29.66404        0.417
       22.71074       24.63105       25.96729       -0.834
       23.22361       24.69579       25.16169        0.417
       22.01489       25.27978       25.86157        0.417
        1.13858       17.91074       14.44345       -0.834
        1.22542       18.05081       15.38635        0.417
        1.78602       17.23555       14.24050        0.417
        3.88266       20.94713       11.79767       -0.834
        4.34513       21.66952       11.37282        0.417
        2.97139       21.05156       11.52397        0.417
       23.10236       20.41184       11.78410       -0.834
       23.05614       20.32267       12.73602        0.417
       23.30095       19.52979       11.46980        0.417
       18.92610       16.09701       23.31391       -0.834
       19.09675       16.68161       24.05239        0.417
       19.22963       15.23941       23.61160        0.417
        8.13048       22.84142       15.28536       -0.834
        7.67115       22.80985       14.44616        0.417
        8.79818       22.15875       15.21931        0.417
        9.73448        8.03361        6.71525       -0.834
       10.36536        8.54856        7.21828        0.417
       10.17123        7.86874        5.87961        0.417
        8.09311       10.29379       13.34880       -0.834
        8.25851       10.22632       14.28919        0.417
        7.93623       11.22609       13.19901        0.417
       17.26205       17.40634        1.82367       -0.834
       17.14233       16.54489        2.22341        0.417
       16.41985       17.84535        1.94285        0.417
       12.96279       14.23619        1.33813       -0.834
       13.88774       14.00826        1.24465        0.417
       12.81412       14.25298        2.28356        0.417
       22.74221       24.73613       16.87038       -0.834
       22.62710       25.64955       17.13238        0.417
       22.74095       24.24826       17.69392        0.417
       25.26398       13.60778       26.56106       -0.834
       25.18222       13.09761       27.36684        0.417
       26.12520       14.02067       26.62478        0.417
       28.35253       23.69049       12.74156       -0.834
       27.61573       23.07945       12.74510        0.417
       28.29743       24.12795       11.89196        0.417
        9.68956       14.85340       21.75662       -0.834
        9.77777       13.90245       21.82097        0.417
       10.58394       15.18367       21.84157        0.417
       11.91510       29.28972       16.17897       -0.834
       11.92489       30.14151       16.61553        0.417
       11.74978       28.66158       16.88207        0.417
       11.40874       21.66387       22.07704       -0.834
       11.84941       22.50970       22.15859        0.417
       11.62363       21.20217       22.88753        0.417
        8.75142       21.94106       18.33141       -0.834
        9.05673       22.49390       19.05072        0.417
        9.29434       22.19626       17.58551        0.417
       17.65494       16.79005       11.36540       -0.834
       18.53687       17.15370       11.28675        0.417
       17.75210       15.86980       11.12059        0.417
       27.22699       11.07237       25.61274       -0.834
       27.53458       11.17139       26.51375        0.417
       27.67239       11.76815       25.12927        0.417
       23.83816       22.30312        4.35288       -0.834
       23.33620       22.64703        5.09180        0.417
       24.60452       22.87390        4.29694        0.417
       14.03923       25.81808        8.17816       -0.834
       13.15680       26.18650        8.13560        0.417
       14.08478       25.21773        7.43402        0.417
       17.93043        5.72031       24.68625       -0.834
       18.85326        5.86118       24.47468        0.417
       17.83643        4.76867       24.72837        0.417
       18.94963       21.25277       28.17426       -0.834
       19.15959       21.19571       29.10640        0.417
       18.72678       22.17312       28.03436        0.417
       17.33835       19.76533       22.12506       -0.834
       17.84087       20.56994       21.99729        0.417
       17.92578       19.06705       21.83598        0.417
       24.47831       16.00867       12.07510       -0.834
       24.10240       16.41428       12.85638        0.417
       24.66113       16.74235       11.48814        0.417
       11.07609        9.37839       14.15151       -0.834
       10.78431        9.68472       13.29287        0.417
       10.54556        9.87328       14.77589        0.417
       12.00236       13.62702        3.94573       -0.834
       12.12776       13.96160        4.83374        0.417
       11.74134       12.71422        4.06782        0.417
       19.13646        9.71220       28.15310       -0.834
       18.61626        9.29012       28.83682        0.417
       18.51376        9.87693       27.44505        0.417
       17.14450        5.16218        8.38968       -0.834
       17.02775        5.11397        9.33850        0.417
       16.25505        5.22282        8.04121        0.417
       16.79310       20.64065       24.90883       -0.834
       16.85562       20.64019       23.95367        0.417
       15.85771       20.54514       25.08815        0.417
       23.39989       13.40207       12.04410       -0.834
       23.45799       14.35748       12.05128        0.417
       22.58751       13.21457       11.57389        0.417
       19.33558       18.08818       29.22548       -0.834
       18.77141       18.29748       28.48107        0.417
       19.35218       18.89060       29.74711        0.417
       22.04996       26.65510       23.98980       -0.834
       22.17984       27.60318       23.96742        0.417
       22.93151       26.29021       23.91272        0.417
       11.75069       28.99712       10.58029       -0.834
       12.68877       29.03647       10.76652        0.417
       11.39515       29.79638       10.96888        0.417
       13.78469       20.96975        4.46865       -0.834
       12.98868       21.19697        4.94925        0.417
       14.14422       20.21892        4.94112        0.417
       25.98360       17.04470       18.57347       -0.834
       25.64640       17.19286       19.45697        0.417
       25.98828       17.91257       18.16971        0.417
       13.09851       23.06809       12.26968       -0.834
       13.12081       22.77111       13.17937        0.417
       13.83340       22.61858       11.85240        0.417
       17.77108        9.90118       25.28557       -0.834
       17.37033       10.54301       24.69932        0.417
       17.11747        9.20621       25.36334        0.417
        7.24312       23.04129       12.82482       -0.834
        7.82516       23.45670       12.18851        0.417
        6.75099       22.39748       12.31536        0.417
       25.21099       22.89814       22.29552       -0.834
       25.54744       22.13070       22.75820        0.417
       25.84479       23.05310       21.59516        0.417
        9.31724        5.51017       20.84404       -0.834
        9.13327        4.61441       21.12688        0.417
       10.13198        5.44210       20.34625        0.417
       11.05980       20.72978       24.65179       -0.834
       11.00926       19.86396       24.24676        0.417
       10.68538       20.60876       25.52437        0.417
       11.79245        3.42780       12.88226       -0.834
       11.67316        4.23671       12.38459        0.417
       11.88481        3.71611       13.79032        0.417
       15.36354        2.31208       18.53229       -0.834
       15.95514        2.77070       17.93572        0.417
       15.64085        1.39696       18.48885        0.417
       14.45086       22.70494       19.03808       -0.834
       15.37760       22.69066       18.79895        0.417
       14.17872       21.78806       18.99882        0.417
        7.15514       17.10124        9.87643       -0.834
        7.81833       17.25187       10.55001        0.417
        6.44707       17.70631       10.09723        0.417
       15.71207       11.73914        3.76701       -0.834
       15.18948       12.07351        4.49593        0.417
       16.47873       12.31157        3.73893        0.417
       21.33416       24.34162       14.50291       -0.834
       21.93708       24.44969       15.23846        0.417
       21.87713       24.47496       13.72596        0.417
       22.78958        8.95434       23.11674       -0.834
       22.16256        9.23571       23.78301        0.417
       23.64681        9.13542       23.50222        0.417
        7.34211       13.29892       28.56406       -0.834
        6.61000       13.66988       29.05665        0.417
        7.95045       14.02937       28.45178        0.417
       23.02170        5.33579       18.82620       -0.834
       22.94294        6.00492       19.50612        0.417
       23.71345        4.75393       19.14110        0.417
       17.07878        2.62772       13.81611       -0.834
       17.13825        3.10822       12.99039        0.417
       17.92851        2.19595       13.90425        0.417
       27.96448       14.60592       21.16131       -0.834
       28.79999       14.34508       21.54881        0.417
       28.13101       15.47388       20.79369        0.417
        2.61996       17.09274       10.48056       -0.834
        1.90486       17.25567       11.09563        0.417
        3.03735       16.29430       10.80385        0.417
        6.16234       12.06778       20.62845       -0.834
        6.37852       12.77024       21.24168        0.417
        6.63850       12.29214       19.82898        0.417
       16.09634       10.87020       15.45879       -0.834
       15.54650       11.56077       15.08862        0.417
       15.56719       10.07608       15.38385        0.417
       19.49339       15.88924        8.58545       -0.834
       20.29135       16.40352        8.70800        0.417
       19.64475       15.08819        9.08710        0.417
        6.31540       14.37595       26.06576       -0.834
        7.25766       14.35968       26.23340        0.417
        5.97800       15.04869       26.65721        0.417
       11.69786        8.63691       26.62404       -0.834
       12.41722        9.24628       26.78964        0.417
       11.63433        8.11718       27.42534        0.417
       19.56790       22.20618       24.76974       -0.834
       19.33718       21.68852       25.54114        0.417
       18.90237       22.89323       24.73394        0.417
       17.29498       23.01579       19.03254       -0.834
       17.92847       23.20785       18.34114        0.417
       17.60411       22.19723       19.42064        0.417
        7.78901       18.21382       18.87470       -0.834
        7.39716       19.04781       19.13384        0.417
        8.24574       18.40733       18.05606        0.417
       15.22616       16.37915       29.95721       -0.834
       15.47706       16.78963       30.78473        0.417
       16.05554       16.22316       29.50552        0.417
       23.11177       21.70208       27.70242       -0.834
       23.17572       21.82780       28.64917        0.417
       23.65915       22.39392       27.33095        0.417
        4.13908       14.72814        7.95287       -0.834
        4.98382       15.11076        7.71571        0.417
        3.50418       15.42395        7.78265        0.417
       13.46389       26.19845       27.39310       -0.834
       13.02811       26.58069       28.15482        0.417
       12.91287       25.45462       27.14954        0.417
       25.44214       18.35852       10.79208       -0.834
       26.11494       18.50830       11.45627        0.417
       25.91018       18.41627        9.95911        0.417
       11.15502       11.09657        5.06609       -0.834
       10.80361       10.81877        5.91200        0.417
       12.09756       10.94518        5.13637        0.417
       15.22941        7.55131       15.42791       -0.834
       15.76292        6.76873       15.56641        0.417
       14.32746        7.24855       15.53301        0.417
        9.34280       13.34488        5.56505       -0.834
        9.71877       12.63896        6.09092        0.417
        9.17272       12.94452        4.71239        0.417
       24.62313       10.12754       12.55155       -0.834
       25.05564       10.92663       12.85259        0.417
       23.74007       10.18029       12.91715        0.417
       17.36611       14.17330       10.73774       -0.834
       17.67944       13.40437       11.21398        0.417
       17.25784       13.86971        9.83644        0.417
       25.48307       11.61809        6.63416       -0.834
       25.02101       11.99868        5.88725        0.417
       26.41019       11.70565        6.41278        0.417
       23.64556        3.84361       14.97826       -0.834
       23.81135        3.77045       14.03837        0.417
       22.74930        3.52640       15.08926        0.417
        8.26396       28.51591       16.16417       -0.834
        8.08022       28.15996       17.03352        0.417
        8.94065       29.17627       16.31334        0.417
       13.35478        9.14230        5.79281       -0.834
       14.24873        9.19839        5.45527        0.417
       12.86171        8.70979        5.09563        0.417
       11.09120        7.87861       24.15834       -0.834
       11.42787        8.25502       24.97149        0.417
       10.80874        6.99681       24.40099        0.417
       26.29530       19.46987        5.78354       -0.834
       26.62930       19.10851        4.96251        0.417
       26.57096       20.38645        5.77205        0.417
       12.36576       17.81689       25.39751       -0.834
       12.66582       16.91998       25.25002        0.417
       11.70027       17.73799       26.08097        0.417
       22.68747       11.65576       13.89819       -0.834
       23.08479       12.38047       13.41531        0.417
       23.09746       11.68989       14.76246        0.417
        8.95839       15.43857       25.15829       -0.834
        8.89714       14.94761       24.33888        0.417
        9.85043       15.27990       25.46703        0.417
       10.20290       11.19548        7.56093       -0.834
        9.41459       10.98950        8.06331        0.417
       10.86506       10.59008        7.89449        0.417
       21.15787        5.78040        9.99058       -0.834
       20.88452        5.65187       10.89887        0.417
       21.81678        6.47336       10.03404        0.417
        9.87359       23.83254       19.95504       -0.834
        9.98174       23.35854       20.77957        0.417
       10.76350       23.93165       19.61669        0.417
        5.88904       20.58336       24.38731       -0.834
        6.68332       21.07064       24.16845        0.417
        5.83648       19.89828       23.72087        0.417
        5.68900       16.72410       19.90526       -0.834
        6.49754       16.94212       19.44163        0.417
        5.28610       17.57108       20.09639        0.417
       26.26840       21.07891       23.96058       -0.834
       26.97901       20.49117       23.70402        0.417
       25.61354       20.50468       24.35762        0.417
       14.56895        6.32419        7.83849       -0.834
       14.12681        5.50942        8.07699        0.417
       14.44721        6.39505        6.89171        0.417
       24.21829       28.90138       20.21154       -0.834
       23.71242       29.59339       20.63752        0.417
       23.74630       28.09543       20.42105        0.417
        8.69066        7.33808       17.92196       -0.834
        8.66240        7.14125       18.85827        0.417
        7.80660        7.14563       17.60948        0.417
        6.09000        9.02157       16.16280       -0.834
        5.76608        8.16333       16.43618        0.417
        5.32549        9.45805       15.78696        0.417
        7.10700       27.88300       21.82768       -0.834
        7.63259       27.08325       21.84725        0.417
        7.19254       28.24800       22.70842        0.417
       13.52427       20.15978       18.71760       -0.834
       14.01932       20.16205       19.53684        0.417
       12.62683       19.95496       18.98006        0.417
       22.82757       12.23469        7.78680       -0.834
       22.58639       11.52169        8.37814        0.417
       23.66253       11.96008        7.40777        0.417
       22.93874       19.82753        3.84136       -0.834
       23.37567       20.63049        4.12520        0.417
       22.07757       20.11669        3.53968        0.417
        8.85574       17.14593        7.48239       -0.834
        8.70155       17.50053        6.60677        0.417
        7.99878       17.17587        7.90777        0.417
       12.21681        4.38257       15.61627       -0.834
       11.41103        4.52383       16.11326        0.417
       12.49728        5.26090       15.35915        0.417
       19.71538        2.83486       11.63685       -0.834
       19.67444        2.21749       12.36720        0.417
       19.49843        3.68195       12.02620        0.417
       28.11182       20.51492       15.47877       -0.834
       28.88163       20.63898       14.92356        0.417
       27.92759       21.38545       15.83159        0.417
       25.49118       21.73068       18.03711       -0.834
       26.20798       22.09949       18.55325        0.417
       24.81592       21.51845       18.68148        0.417
        7.66261       25.36329       22.84002       -0.834
        7.47413       25.66813       23.72759        0.417
        6.92382       24.79618       22.61910        0.417
       19.87434       23.94921        9.69537       -0.834
       18.94866       23.70931        9.65297        0.417
       20.25241       23.33642       10.32607        0.417
       20.30924       30.50863       18.70993       -0.834
       20.12815       30.41738       17.77446        0.417
       19.85726       31.31308       18.96451        0.417
       10.45228       26.38006       21.81442       -0.834
        9.62119       26.03589       22.14165        0.417
       10.21239       26.89306       21.04273        0.417
       26.06925        5.59779       13.35009       -0.834
       26.32098        6.52127       13.35693        0.417
       26.78067        5.15171       13.80958        0.417
        9.11071        7.29169       13.38255       -0.834
        9.63010        7.90351       13.90422        0.417
        8.70129        7.83674       12.71059        0.417
       11.85583       27.80056       24.02334       -0.834
       12.69764       27.43211       24.29134        0.417
       11.59829       27.28147       23.26148        0.417
       21.28950       10.24611        8.96522       -0.834
       20.53228       10.04922        8.41378        0.417
       20.98446       10.08518        9.85813        0.417
       13.07593        3.85761        8.49865       -0.834
       12.40631        4.49173        8.75502        0.417
       12.68629        3.37995        7.76636        0.417
       12.23447       24.24625       21.89776       -0.834
       12.66958       24.15872       22.74584        0.417
       11.67294       25.01539       21.99438        0.417
       17.58951       18.41419       26.99116       -0.834
       17.82112       19.10488       26.37025        0.417
       16.70005       18.15937       26.74588        0.417
       26.34414       15.82249        6.83603       -0.834
       25.96669       15.64462        5.97456        0.417
       27.23727       15.48251        6.78155        0.417
       17.46240       15.45681       27.75311       -0.834
       17.45854       16.32136       27.34228        0.417
       18.36456       15.15080       27.65979        0.417
       29.91878       14.41591       16.38022       -0.834
       29.25959       15.02276       16.71700        0.417
       29.90891       14.55240       15.43285        0.417
        3.75568       21.13157       14.43408       -0.834
        3.98811       22.05780       14.50007        0.417
        3.84424       20.92766       13.50305        0.417
       14.32286        9.41043       20.28091       -0.834
       13.94868        9.06190       21.09008        0.417
       13.89774       10.26038       20.16653        0.417