%Nproc=32
%Mem=120Gb
%chk=temp.chk
#p cam-b3lyp/6-31+G(d,p) nosymm charge Freq 

Calculation for S0 with freq for abs spect

0  1
 C         17.33051       15.59472       17.27778
 C         16.93811       16.87007       15.32595
 C         16.09861       17.71135       15.96411
 C         15.74413       17.48189       17.35461
 N         16.45760       16.43108       17.92500
 H         17.05088       17.04627       14.22217
 H         15.73558       18.53782       15.40140
 O         14.98684       18.10748       18.07259
 O         17.86716       14.62951       17.85107
 N         17.48864       15.84376       15.93523
 H         18.18050       15.24117       15.45225
 H         16.38701       16.19467       18.94516
 O         14.54151       20.83117       14.92892
 H         13.90936       21.45448       14.57099
 H         14.10266       20.45597       15.69238
 O         19.57653       18.94115       17.23503
 H         19.62908       18.80008       18.18032
 H         20.47291       18.81595       16.92350
 O         15.64922       11.70996       15.99814
 H         16.55396       11.89417       15.74566
 H         15.15003       12.45448       15.66238
 O         20.18186       13.19028       18.02586
 H         19.25005       13.01744       17.89132
 H         20.57009       13.10408       17.15518
 O         15.99475       15.87367       20.73645
 H         15.79038       15.96083       21.66751
 H         16.60255       15.13552       20.69224
 O         17.06733       18.50876       20.87151
 H         17.63350       18.63256       21.63332
 H         16.70511       17.62966       20.98203
 O         12.76024       14.76807       16.37597
 H         13.47283       14.93376       15.75872
 H         12.14233       14.22325       15.88854
 O         12.30603       17.39276       20.00320
 H         12.98909       17.85682       19.51915
 H         11.79496       16.94603       19.32831
 O         14.49910       15.37367       13.94254
 H         14.47452       14.48799       13.58033
 H         14.96457       15.88941       13.28407
 O         13.18195       19.37896       16.69882
 H         12.91204       18.71000       16.06964
 H         13.78940       18.92669       17.28421
 O         16.33169       16.17037       12.00979
 H         16.85470       15.40007       11.78769
 H         15.80148       16.33351       11.22973
 O         16.05273       20.64784       18.19573
 H         15.53740       19.85321       18.05704
 H         16.87620       20.33721       18.57207
 O         16.84154       20.30496       13.39101
 H         17.50329       20.29861       14.08258
 H         16.00781       20.23469       13.85597
 O         19.80344       14.86121       14.79698
 H         20.55865       14.90355       15.38359
 H         20.14209       15.14756       13.94872
 O         18.54380       14.40774       20.56434
 H         19.01840       13.59017       20.41417
 H         18.33845       14.73065       19.68696
 O         12.99515       17.69279       14.66926
 H         13.48004       16.91305       14.39885
 H         12.74930       18.11921       13.84832
 O         19.74546       18.98595       14.39618
 H         19.91460       19.92730       14.35765
 H         19.52684       18.81873       15.31296
 O         13.21995       13.22732       18.66836
 H         13.14358       13.70425       17.84196
 H         12.66277       13.71187       19.27745
 O         18.45267       12.00562       15.19252
 H         18.55778       11.89266       16.13720
 H         19.12026       12.64797       14.95189
 
       19.91618        3.10303       16.91697       -0.834
       19.96835        3.90213       16.39261        0.417
       18.98243        2.99518       17.09779        0.417
       16.05225       24.64061       18.68654       -0.834
       16.35382       23.80175       19.03526        0.417
       16.73959       25.26170       18.92744        0.417
       21.17924        9.61129       16.50253       -0.834
       20.76767       10.17573       15.84812        0.417
       20.70706        8.78142       16.43473        0.417
        6.04315       18.70840       22.33649       -0.834
        6.79733       18.14822       22.51991        0.417
        5.28603       18.13073       22.43290        0.417
       15.47740       10.46035       30.07224       -0.834
       15.18149        9.91801       29.34112        0.417
       15.35641        9.90839       30.84485        0.417
       27.21611       21.04677       14.97236       -0.834
       26.74221       21.86826       14.84277        0.417
       26.53551       20.37372       14.96735        0.417
       11.88826       21.50510       18.10322       -0.834
       10.99465       21.18649       18.23048        0.417
       12.22609       20.98681       17.37282        0.417
       19.91576       29.92880       13.16253       -0.834
       19.08048       30.33605       13.39208        0.417
       20.08050       30.20995       12.26250        0.417
       22.58508       24.58789       23.80552       -0.834
       22.81083       24.71284       24.72729        0.417
       21.63337       24.68596       23.77609        0.417
       21.02387       20.84994       10.12409       -0.834
       20.11815       20.64831       10.35917        0.417
       21.51073       20.05479       10.34072        0.417
        9.26674       21.45336       27.49884       -0.834
       10.08023       20.96245       27.61488        0.417
        8.58496       20.87052       27.83306        0.417
       14.87875       14.16950       23.41480       -0.834
       15.57654       14.82234       23.47068        0.417
       14.25089       14.54173       22.79555        0.417
       20.81601       14.01930       11.47562       -0.834
       21.08937       13.12457       11.67801        0.417
       21.62061       14.53470       11.53239        0.417
       17.45719        8.24676        6.04743       -0.834
       17.92656        7.72544        5.39619        0.417
       16.55830        7.91948        6.01433        0.417
       21.41521       12.39008       15.47560       -0.834
       21.37883       11.94232       14.63037        0.417
       22.34755       12.54882       15.62315        0.417
       29.91209       21.06914       13.93452       -0.834
       30.14725       20.18302       14.20969        0.417
       28.98630       21.15352       14.16261        0.417
       14.45588        9.97967        6.38156       -0.834
       14.41173        9.22578        6.96971        0.417
       14.78478       10.69244        6.92930        0.417
       22.65492       16.16654       27.08787       -0.834
       22.78096       16.63500       27.91304        0.417
       22.69486       15.24102       27.32881        0.417
        7.62156       11.35475       17.14133       -0.834
        7.45704       10.52049       17.58083        0.417
        7.81135       11.11485       16.23432        0.417
        9.03763       20.75089       21.36136       -0.834
        9.57407       20.16206       21.89216        0.417
        8.61874       21.33184       21.99639        0.417
       17.86682       27.17083       26.81656       -0.834
       16.92799       27.07317       26.65751        0.417
       18.26559       27.10234       25.94908        0.417
       22.49783       16.17255        4.89000       -0.834
       23.15430       15.57110        5.24150        0.417
       22.22619       16.69787        5.64265        0.417
       10.91404        6.41904       17.25018       -0.834
       10.19499        5.85605       16.96339        0.417
       11.01917        6.21897       18.18032        0.417
       28.58354       13.09086       17.27641       -0.834
       29.36708       13.54222       16.96244        0.417
       28.60438       13.20653       18.22636        0.417
       20.89756        3.37629       19.81243       -0.834
       20.08443        2.94982       20.08293        0.417
       21.27622        2.78204       19.16458        0.417
       26.94305        6.32592       10.88652       -0.834
       26.32379        6.52946       11.58747        0.417
       27.78950        6.25370       11.32758        0.417
       12.82451       25.93047       23.43535       -0.834
       13.53142       26.57467       23.47418        0.417
       12.24084       26.25568       22.74992        0.417
       28.86974       20.17710       21.56214       -0.834
       28.39568       19.35260       21.67034        0.417
       28.90534       20.31095       20.61502        0.417
       18.53933       14.08798        3.09549       -0.834
       18.31268       14.83072        3.65512        0.417
       19.49330       14.12263        3.02539        0.417
       12.96470       24.25512       28.32060       -0.834
       13.74199       24.71408       28.00216        0.417
       12.86273       24.55421       29.22411        0.417
        6.81895        9.36722       21.18805       -0.834
        6.86111        8.74240       21.91197        0.417
        6.70529       10.21801       21.61168        0.417
       12.42728       13.61211        7.83710       -0.834
       11.96979       12.77143        7.85068        0.417
       12.27549       13.95373        6.95592        0.417
       31.04588       14.19223       16.76438       -0.834
       31.44962       14.83183       17.35102        0.417
       31.61948       14.17365       15.99830        0.417
        5.53458        7.32042       14.55989       -0.834
        5.30468        6.83085       13.77015        0.417
        6.49083        7.36103       14.54723        0.417
       10.60489        8.54511       15.19521       -0.834
       10.81545        8.15819       16.04503        0.417
       10.38464        7.79776       14.63919        0.417
       10.79364       28.49437       13.28762       -0.834
       10.45549       29.22450       12.76914        0.417
       10.39211       27.71746       12.89849        0.417
       14.11695        5.00751       18.93404       -0.834
       14.70656        4.43076       19.41979        0.417
       13.58849        5.43380       19.60875        0.417
       12.98474       25.97618        6.44222       -0.834
       13.22605       26.90244        6.43571        0.417
       13.81768       25.51175        6.52433        0.417
       14.23095        5.95919       25.67804       -0.834
       14.05300        5.45068       24.88685        0.417
       14.19718        6.87132       25.38973        0.417
       24.91426       18.83629       23.07919       -0.834
       24.93650       19.72507       23.43387        0.417
       24.95673       18.26943       23.84932        0.417
       14.78076       23.91343        6.53084       -0.834
       14.74815       23.12426        7.07156        0.417
       14.96460       23.59210        5.64813        0.417
       23.21134       25.87332       17.35951       -0.834
       24.11498       26.04042       17.62738        0.417
       22.87331       25.26827       18.01972        0.417
       26.75511       11.50075       24.93251       -0.834
       26.73996       12.24531       24.33114        0.417
       25.83354       11.27370       25.05659        0.417
       18.09393       27.20923       24.14914       -0.834
       17.39446       26.74796       23.68631        0.417
       18.84109       27.17349       23.55189        0.417
        9.10364       28.50931       15.44173       -0.834
        9.02324       27.55856       15.51808        0.417
        9.98442       28.64850       15.09374        0.417
       17.74871       26.87426       19.71105       -0.834
       17.99672       26.31563       20.44770        0.417
       18.57438       27.06519       19.26602        0.417
       21.39696       10.89907       18.96133       -0.834
       20.99917       11.72699       18.69198        0.417
       21.18325       10.28920       18.25520        0.417
       21.69127       11.34076       12.90086       -0.834
       21.21706       10.57667       12.57296        0.417
       22.55364       11.00265       13.14217        0.417
       21.18901       26.92457       26.38266       -0.834
       22.04429       27.29313       26.16153        0.417
       20.64273       27.68600       26.57768        0.417
       28.44045       12.02012       10.42320       -0.834
       29.22771       12.50106       10.16793        0.417
       27.71663       12.59351       10.17112        0.417
        1.98883       13.35109       17.00537       -0.834
        1.47490       13.82904       16.35447        0.417
        2.62304       12.85178       16.49089        0.417
        6.48330       20.88904       23.97055       -0.834
        6.48405       20.38165       23.15890        0.417
        7.30471       21.37994       23.94746        0.417
       25.04558       19.75377       18.07823       -0.834
       24.37839       20.29558       17.65691        0.417
       24.85291       19.81982       19.01351        0.417
       19.30303       25.38013       21.66247       -0.834
       19.86862       24.76337       21.19777        0.417
       19.02070       24.90489       22.44392        0.417
       16.51118       24.01560       28.94976       -0.834
       16.15504       23.54838       29.70544        0.417
       16.16578       24.90447       29.03255        0.417
       12.60515       15.23093       26.78778       -0.834
       12.97543       15.69328       26.03588        0.417
       13.36271       14.85106       27.23278        0.417
       20.04328        7.20906       11.56502       -0.834
       19.67167        7.46362       10.72042        0.417
       19.75003        6.30709       11.69417        0.417
       29.70208       18.36946       17.75998       -0.834
       29.64651       17.76150       18.49722        0.417
       29.09732       19.07625       17.98565        0.417
        8.64271       14.08180       27.79459       -0.834
        8.87343       13.33922       27.23641        0.417
        7.69127       14.02791       27.88456        0.417
        8.72159       13.75699       18.31799       -0.834
        8.94916       13.30836       19.13235        0.417
        8.37728       13.06637       17.75166        0.417
       13.54638       18.67842       11.86230       -0.834
       14.25405       18.04939       12.00285        0.417
       13.12017       18.38425       11.05729        0.417
       14.58780       25.00029       16.44064       -0.834
       15.26550       24.68178       17.03688        0.417
       15.04471       25.14154       15.61148        0.417
        4.74899        7.44559       17.39401       -0.834
        4.12612        8.09409       17.72216        0.417
        4.80148        7.61752       16.45384        0.417
       26.78402       15.72912       20.37501       -0.834
       26.07159       15.51449       19.77284        0.417
       27.20160       14.88838       20.56212        0.417
       20.91111       22.20446       26.38480       -0.834
       20.44800       22.86083       25.86428        0.417
       20.73056       22.44725       27.29292        0.417
       11.35600       23.82739       12.01240       -0.834
       10.72281       23.35452       12.55248        0.417
       10.83374       24.48040       11.54651        0.417
       24.30168        6.11105       16.08855       -0.834
       24.89118        5.66953       15.47718        0.417
       23.43069        5.99349       15.70936        0.417
        9.77006       27.85664       22.87490       -0.834
       10.65064       28.03959       23.20255        0.417
        9.21232       28.49852       23.31438        0.417
       16.00967       24.96509       24.21980       -0.834
       15.66602       25.85332       24.12396        0.417
       15.43828       24.42635       23.67254        0.417
       21.28644       14.51755        2.82613       -0.834
       21.76872       15.06091        3.44934        0.417
       21.67269       13.64658        2.91799        0.417
       15.91989       27.75879       17.54237       -0.834
       15.78777       26.81113       17.56917        0.417
       16.50078       27.94110       18.28098        0.417
       18.65380       24.51181       16.93185       -0.834
       17.76653       24.35088       16.61078        0.417
       18.66581       24.12572       17.80765        0.417
        9.54946       12.00745       23.62521       -0.834
       10.21864       11.34001       23.47369        0.417
        9.99920       12.68919       24.12441        0.417
       13.80908       10.70088       18.31730       -0.834
       14.16677       10.70971       17.42949        0.417
       13.57759       11.61312       18.49185        0.417
       28.38836       18.45515       25.32609       -0.834
       27.59106       18.85842       25.66949        0.417
       28.12599       18.08423       24.48359        0.417
       25.21860       28.15728       10.41092       -0.834
       25.91123       27.51618       10.57054        0.417
       24.47528       27.84027       10.92395        0.417
       23.12575       24.34502       13.76193       -0.834
       22.35099       24.67872       14.21429        0.417
       22.77590       23.82909       13.03553        0.417
       22.18570       18.71377       11.05483       -0.834
       21.85406       18.54961       11.93761        0.417
       23.12358       18.86292       11.17468        0.417
       16.85718        8.25377       11.21204       -0.834
       16.08643        7.72255       11.01217        0.417
       16.60389        9.14462       10.97026        0.417
       25.03081       19.35432       14.17467       -0.834
       25.47629       18.94937       13.43049        0.417
       24.50884       20.05750       13.78826        0.417
       14.85856        8.78165       20.48790       -0.834
       15.09730        9.31843       21.24361        0.417
       14.42605        9.38988       19.88854        0.417
       20.23198       17.09030        9.59907       -0.834
       19.27763       17.16407        9.60209        0.417
       20.51571       17.61624       10.34681        0.417
       18.83204       21.47591       15.23204       -0.834
       18.08405       21.87861       15.67310        0.417
       19.59158       21.75824       15.74157        0.417
       24.05659       14.42866        6.05214       -0.834
       24.38610       13.53061        6.01788        0.417
       24.03920       14.64248        6.98499        0.417
        8.40917       16.77296       25.97871       -0.834
        7.53073       17.06596       26.22103        0.417
        8.50220       15.91885       26.40070        0.417
       17.70965       21.61134       28.58034       -0.834
       17.08294       21.10897       28.05968        0.417
       17.40191       22.51567       28.51941        0.417
       27.25132       25.69724       15.25960       -0.834
       27.59480       25.63141       16.15062        0.417
       28.01200       25.54956       14.69765        0.417
       13.95442        2.71745       14.46217       -0.834
       14.06087        2.82997       15.40675        0.417
       13.01039        2.62082       14.33687        0.417
       29.43398        8.42941       15.60238       -0.834
       29.54987        8.95054       16.39688        0.417
       28.69392        7.85475       15.79814        0.417
       16.70934       12.49599        4.48496       -0.834
       16.33051       12.26162        3.63773        0.417
       17.40346       13.12012        4.27306        0.417
       21.68246       27.87279       13.72436       -0.834
       21.16601       28.63558       13.46424        0.417
       21.80292       27.97513       14.66842        0.417
       14.53739       19.59399       21.20924       -0.834
       15.36679       19.39928       20.77289        0.417
       14.67910       19.33616       22.12011        0.417
       18.44601       22.42332        9.55894       -0.834
       17.67941       22.97034        9.38772        0.417
       18.95250       22.91546       10.20506        0.417
       27.95211       20.38596       18.66800       -0.834
       27.14493       19.90238       18.49239        0.417
       27.74158       21.29298       18.44610        0.417
        7.77646       13.78975       14.20947       -0.834
        6.94257       13.75903       14.67842        0.417
        8.13059       12.90425       14.29133        0.417
       27.40131       14.38025        8.87407       -0.834
       28.28874       14.55715        9.18616        0.417
       27.50958       13.68670        8.22330        0.417
        6.62100       15.45843       16.95981       -0.834
        6.03506       15.05181       17.59822        0.417
        7.49936       15.21015       17.24802        0.417
       16.90424       20.08898        9.18729       -0.834
       17.43890       20.86017        9.37606        0.417
       16.45377       19.90182       10.01087        0.417
        5.24594       13.19939       15.11604       -0.834
        4.61477       13.89985       14.95111        0.417
        4.71521       12.46696       15.42926        0.417
       24.53643       14.82362        8.90255       -0.834
       24.24660       14.32904        9.66911        0.417
       25.46724       14.61593        8.82081        0.417
       23.08286       20.31846        5.89068       -0.834
       23.28250       20.10095        4.98015        0.417
       23.91306       20.20230        6.35274        0.417
       11.51693        9.92853       23.03260       -0.834
       11.68986        9.39372       22.25781        0.417
       11.36808        9.29414       23.73376        0.417
       22.65691        9.35380       27.27688       -0.834
       22.60228       10.08871       26.66601        0.417
       21.77631        8.97863       27.28033        0.417
       23.63132       21.26154       28.51949       -0.834
       23.19226       20.64253       29.10280        0.417
       22.99531       21.42819       27.82383        0.417
       15.69329       12.31398        7.08172       -0.834
       16.33567       12.22518        6.37767        0.417
       15.66959       13.25258        7.26799        0.417
       17.59299        8.86960       16.99911       -0.834
       18.29010        8.22268       16.89061        0.417
       17.20004        8.94705       16.12973        0.417
       13.46038       22.01559       26.60564       -0.834
       13.16529       22.32744       27.46115        0.417
       13.18666       22.69882       25.99366        0.417
       23.05008       20.94066       13.15094       -0.834
       23.38418       21.80260       13.39929        0.417
       22.86087       21.01696       12.21573        0.417
       16.90075       16.32670       23.55750       -0.834
       16.79958       16.14171       24.49118        0.417
       17.83115       16.18362       23.38394        0.417
       17.26191       30.85310       12.84050       -0.834
       16.91919       30.22295       12.20671        0.417
       16.66132       30.79679       13.58370        0.417
        9.72539        9.85963       19.39057       -0.834
        9.29782       10.62974       19.76517        0.417
        9.00481        9.31726       19.06987        0.417
        5.66419       11.75705       19.13834       -0.834
        5.34715       12.65832       19.19698        0.417
        6.08267       11.70529       18.27902        0.417
       13.65464       17.93259       28.08043       -0.834
       13.64484       17.82939       27.12886        0.417
       14.02777       17.11376       28.40680        0.417
       29.88993       16.78649       20.05029       -0.834
       29.17667       16.83225       20.68700        0.417
       30.68577       16.87566       20.57462        0.417
       16.13330        9.87343       26.05740       -0.834
       15.38496       10.29639       25.63629        0.417
       15.79755        9.57937       26.90418        0.417
        7.17811       15.33968        6.64468       -0.834
        7.04347       14.39200        6.64235        0.417
        6.59561       15.66314        7.33193        0.417
       11.99291        8.62886       20.67604       -0.834
       11.20364        8.92408       20.22203        0.417
       12.71490        8.95273       20.13745        0.417
       11.81100       18.75790        9.49285       -0.834
       11.02237       18.24731        9.67610        0.417
       11.88451       18.75174        8.53850        0.417
        3.48702       20.60704       21.96380       -0.834
        4.11173       20.74232       21.25129        0.417
        4.01633       20.65691       22.75977        0.417
       13.14868       13.41217        4.96548       -0.834
       13.66561       13.72981        4.22512        0.417
       13.79795       13.17901        5.62905        0.417
        4.21509       17.72685       19.21299       -0.834
        3.49923       17.69192       19.84746        0.417
        3.82076       18.10455       18.42681        0.417
       18.62050       13.09133       26.71256       -0.834
       18.80335       13.09296       27.65213        0.417
       18.63725       12.16647       26.46642        0.417
       12.62502        4.05274       11.20213       -0.834
       12.86584        3.14561       11.01407        0.417
       13.46031        4.51771       11.25041        0.417
       30.36005       22.06437       11.45578       -0.834
       29.47244       22.42266       11.45784        0.417
       30.35128       21.39755       12.14244        0.417
       21.24668       17.38025       20.50788       -0.834
       20.92204       16.52166       20.77928        0.417
       21.92205       17.18691       19.85769        0.417
       18.62628       10.53093       25.64907       -0.834
       18.66392       10.61071       24.69594        0.417
       17.73811       10.22282       25.82921        0.417
       13.19410       19.85308        6.66438       -0.834
       12.61135       19.26076        6.18921        0.417
       12.60868       20.38234        7.20603        0.417
       22.55383        8.88551       23.93135       -0.834
       22.02928        8.11347       24.14355        0.417
       21.93160        9.49798       23.53900        0.417
       10.68916       18.27704       21.95441       -0.834
       11.15787       18.92415       22.48146        0.417
       11.36471       17.88124       21.40376        0.417
        3.20638       21.56057       12.99583       -0.834
        2.76146       22.31396       12.60766        0.417
        3.65347       21.14098       12.26079        0.417
       23.93870       18.37027       25.55648       -0.834
       23.67225       17.66098       26.14142        0.417
       24.24508       19.06233       26.14251        0.417
        4.59766       24.13631       18.19095       -0.834
        4.04774       23.35284       18.19048        0.417
        5.10159       24.07532       19.00246        0.417
        9.40787       25.71990       15.57036       -0.834
        8.97442       25.60805       16.41643        0.417
        9.46254       24.83486       15.20986        0.417
       22.43588        8.46758        4.36492       -0.834
       22.13932        9.12715        4.99202        0.417
       21.75249        7.79754        4.38019        0.417
       26.30453       24.16481       23.87393       -0.834
       26.62735       24.95874       23.44767        0.417
       26.92085       23.48228       23.60835        0.417
        6.88954        8.75705       26.05426       -0.834
        6.00653        8.94832       25.73812        0.417
        7.37134        9.57475       25.92991        0.417
       20.15665       20.08336        2.42277       -0.834
       19.67774       19.34974        2.03718        0.417
       20.00240       20.00247        3.36399        0.417
       30.88269       16.21211       11.92729       -0.834
       29.93220       16.25115       12.03344        0.417
       31.06515       16.78827       11.18502        0.417
       13.03494       14.30806       30.78192       -0.834
       13.79695       13.72898       30.79749        0.417
       12.34077       13.78066       30.38668        0.417
       15.66704       18.67430       23.68061       -0.834
       15.94877       17.85388       23.27592        0.417
       16.11712       18.69225       24.52520        0.417
       10.49245       15.18649       12.76353       -0.834
       10.57632       14.81397       11.88579        0.417
       10.26094       14.44214       13.31903        0.417
       29.44341       14.75357       23.89666       -0.834
       29.51350       15.04007       24.80729        0.417
       28.57725       14.35039       23.83792        0.417
       16.17429        7.21240       18.58059       -0.834
       16.02881        7.63406       17.73367        0.417
       15.40064        7.43809       19.09709        0.417
        8.28257       17.96320        9.96509       -0.834
        8.39478       18.47397       10.76681        0.417
        7.48645       17.45330       10.11484        0.417
       22.62247        5.17505       14.19202       -0.834
       22.70723        5.57577       13.32687        0.417
       22.79489        4.24525       14.04376        0.417
       12.16529       30.93983       15.91095       -0.834
       12.75463       31.67301       16.08804        0.417
       12.62196       30.17488       16.26100        0.417
       16.29468        5.12471       13.69448       -0.834
       16.45077        4.86635       14.60284        0.417
       15.85321        5.97162       13.75833        0.417
       28.14035       12.57296       20.35550       -0.834
       27.64841       11.76476       20.50055        0.417
       29.05784       12.30025       20.36400        0.417
       20.90557       29.09815       23.34341       -0.834
       21.56511       29.75064       23.10782        0.417
       21.38977       28.43362       23.83351        0.417