%Nproc=32
%Mem=120Gb
%chk=temp.chk
#p cam-b3lyp/6-31+G(d,p) nosymm charge Freq 

Calculation for S0 with freq for abs spect

0  1
 C         17.29222       17.55388       15.73271
 C         17.14701       16.28202       17.83686
 C         16.12624       15.54964       17.35224
 C         15.68711       15.73963       15.96006
 N         16.31701       16.74458       15.25146
 H         17.63806       16.20719       18.81369
 H         15.63244       14.73789       17.97029
 O         14.83153       15.06282       15.51666
 O         17.81502       18.34874       15.02166
 N         17.62722       17.33018       17.05919
 H         18.25510       17.99689       17.46175
 H         16.09173       16.81865       14.27295
 O         20.97236       16.30383       16.35299
 H         20.82290       16.30796       15.40754
 H         21.20816       17.20754       16.56262
 O         16.91994       14.29882       11.48160
 H         16.50093       15.09231       11.14837
 H         16.42864       14.08272       12.27416
 O         15.48430       17.41323       12.57339
 H         15.76616       17.35671       11.66038
 H         15.33876       18.34752       12.72222
 O         12.91795       13.56988       16.44365
 H         13.53149       12.92705       16.79941
 H         13.45702       14.33855       16.25719
 O         19.40558       19.24341       18.29928
 H         19.20497       20.02190       18.81883
 H         19.97430       18.71880       18.86281
 O         15.39355       20.76836       15.04912
 H         15.91272       20.03145       15.37106
 H         16.01426       21.29941       14.55018
 O         13.76876       21.05351       17.14007
 H         13.96578       20.20568       17.53832
 H         14.29120       21.06920       16.33819
 O         18.14522       13.80716       20.69266
 H         18.99445       14.18993       20.47237
 H         17.84821       13.39816       19.87980
 O         16.14552       19.89095       19.38633
 H         15.43441       19.25079       19.35870
 H         16.77881       19.51980       20.00067
 O         18.47936       12.41282       15.16543
 H         17.96678       13.21543       15.06891
 H         17.97403       11.74768       14.69803
 O         13.72401       18.21693       18.39749
 H         13.58758       17.80706       17.54331
 H         13.93009       17.48836       18.98310
 O         17.54683       12.78939       18.17195
 H         18.41440       12.66040       17.78864
 H         17.04992       12.01536       17.90701
 O         20.54164       18.85862       14.55023
 H         19.61827       18.86170       14.80247
 H         20.53469       19.04723       13.61182
 O         13.86780       15.74102       19.60083
 H         13.18503       15.07017       19.59664
 H         14.46445       15.47179       20.29920
 O         15.92048       13.23084       13.84001
 H         15.49378       14.00197       14.21352
 H         15.43625       12.48920       14.20296
 
       12.18465        6.65383       11.08476       -0.834
       11.43139        7.14889       10.76267        0.417
       12.62648        6.34696       10.29302        0.417
       11.11678       23.28173       14.36272       -0.834
       10.25135       23.64558       14.54948        0.417
       11.70817       24.03291       14.40971        0.417
       15.88970        8.12176        9.55467       -0.834
       15.82367        7.26487        9.13322        0.417
       16.16020        8.71407        8.85309        0.417
       11.57999        6.39183       20.36284       -0.834
       12.03710        6.92509       21.01316        0.417
       10.69796        6.76185       20.32618        0.417
       18.68639       11.59139        6.92490       -0.834
       18.32195       12.38138        7.32405        0.417
       17.98344       11.25809        6.36722        0.417
        5.30658        9.13679       15.93102       -0.834
        4.39337        8.86587       16.02529        0.417
        5.60503        9.29058       16.82741        0.417
       21.20509        7.38955       12.22857       -0.834
       22.01859        7.85048       12.02364        0.417
       20.64759        8.05465       12.63238        0.417
       21.00673       25.73475       20.16011       -0.834
       21.68488       25.95037       19.51991        0.417
       20.36507       26.44014       20.07680        0.417
       15.56051       30.38174       18.79150       -0.834
       15.96922       30.25276       19.64739        0.417
       15.82630       29.61698       18.28093        0.417
       22.58778       18.28464       24.56891       -0.834
       22.40793       19.10441       24.10861        0.417
       23.49277       18.37117       24.86847        0.417
       10.58164       10.06164       13.18305       -0.834
       11.18219       10.47893       13.80066        0.417
       11.11553        9.89128       12.40706        0.417
       15.16482       19.34439        8.98879       -0.834
       14.41449       19.70031        9.46476        0.417
       14.80845       18.60372        8.49823        0.417
       18.43239       27.42172        6.36524       -0.834
       18.86617       28.26925        6.26644        0.417
       17.50159       27.61382        6.25148        0.417
       29.20580       19.37929       15.57111       -0.834
       29.36216       18.56639       15.09051        0.417
       29.35864       19.14940       16.48764        0.417
        8.31979       14.76123       19.25469       -0.834
        7.89654       15.40892       18.69114        0.417
        9.24986       14.98495       19.22091        0.417
        8.03915        8.43018       12.75697       -0.834
        8.94713        8.69448       12.90517        0.417
        7.53000        9.22707       12.90520        0.417
        3.85751       22.93885       14.45788       -0.834
        4.40554       22.87153       13.67598        0.417
        3.38480       22.10722       14.49195        0.417
       15.15417        7.22260       12.16282       -0.834
       14.79233        7.88727       12.74892        0.417
       15.37884        7.70233       11.36556        0.417
       28.14725       23.31213       10.14354       -0.834
       27.66374       23.75295        9.44488        0.417
       29.06756       23.48237        9.94283        0.417
       26.99706       18.40686       19.44391       -0.834
       27.79434       18.82046       19.11298        0.417
       26.34482       18.56218       18.76076        0.417
       15.47877       28.00297       23.00005       -0.834
       14.74992       28.41770       22.53854        0.417
       15.29658       28.15990       23.92656        0.417
        5.17312       23.19402       16.91959       -0.834
        4.70527       23.36240       16.10167        0.417
        5.80320       22.50809       16.69884        0.417
       26.84135        9.20286        9.33912       -0.834
       26.97147        9.55450       10.21983        0.417
       27.47263        9.67528        8.79640        0.417
        9.51645       20.76258       26.57926       -0.834
        8.86758       20.19271       26.16642        0.417
       10.22449       20.82400       25.93806        0.417
       24.27385       22.84228       17.20979       -0.834
       25.22089       22.91271       17.08980        0.417
       23.91146       22.95688       16.33129        0.417
       30.04060       17.73526       13.07495       -0.834
       29.96213       16.78603       13.17000        0.417
       30.28202       17.86549       12.15790        0.417
       21.02497       23.03790       20.69158       -0.834
       20.95129       23.92873       20.34921        0.417
       20.90805       23.13363       21.63678        0.417
       18.10058       22.29988       17.09852       -0.834
       18.40077       21.62383       17.70603        0.417
       18.77123       22.32412       16.41597        0.417
       14.66981       27.01894       19.87430       -0.834
       15.43636       26.57880       20.24160        0.417
       14.33423       27.55563       20.59235        0.417
       23.91803       19.46323       14.23816       -0.834
       24.87289       19.51242       14.28360        0.417
       23.69468       18.67363       14.73098        0.417
       27.05757       10.22018       11.98792       -0.834
       26.67727       10.37347       12.85286        0.417
       27.77321       10.85273       11.92489        0.417
       12.44022       21.05519       27.67568       -0.834
       12.20525       20.51488       28.43006        0.417
       12.77709       20.43330       27.03073        0.417
       13.10948       28.72339       21.57476       -0.834
       12.29141       28.62308       21.08802        0.417
       13.24480       29.66968       21.62427        0.417
       12.97226        7.98499       22.27898       -0.834
       13.46233        8.29541       21.51760        0.417
       12.41525        8.72404       22.52348        0.417
        8.53105       24.26285       15.65905       -0.834
        8.88597       24.75177       16.40149        0.417
        7.97189       24.89169       15.20284        0.417
       28.54743       20.55929        9.93119       -0.834
       28.41929       20.24092        9.03763        0.417
       28.14678       21.42859        9.93600        0.417
       25.47850       14.55638       21.75005       -0.834
       24.78445       15.17438       21.52067        0.417
       25.93399       14.96866       22.48407        0.417
       15.34406        6.85617       15.51621       -0.834
       14.87112        6.03315       15.39298        0.417
       14.85675        7.49348       14.99410        0.417
       26.69668       16.68914       12.69960       -0.834
       27.22795       16.19572       13.32451        0.417
       27.27325       17.38994       12.39517        0.417
       24.11211       20.98402       27.04712       -0.834
       24.20078       20.41222       26.28461        0.417
       23.21826       21.32184       26.99111        0.417
       16.23603       13.05464       25.39596       -0.834
       17.01867       12.51392       25.28950        0.417
       16.30992       13.41221       26.28079        0.417
       17.84343       30.95594       14.62393       -0.834
       18.77721       30.77542       14.51575        0.417
       17.78339       31.41625       15.46104        0.417
       13.02819       17.91462       10.43988       -0.834
       13.20152       18.85595       10.43066        0.417
       13.03344       17.67870       11.36753        0.417
       11.76150        5.81489       25.08372       -0.834
       12.22530        5.31806       24.40971        0.417
       12.34945        6.54024       25.29445        0.417
       23.48888        8.28365        8.91228       -0.834
       22.81732        7.92485        8.33219        0.417
       23.44543        9.22973        8.77339        0.417
       18.70981       26.04736        8.91849       -0.834
       18.66954       26.57420        8.12034        0.417
       18.91284       26.67611        9.61108        0.417
       13.25159       20.71755        5.45170       -0.834
       13.59168       21.38013        6.05300        0.417
       13.47878       21.04427        4.58115        0.417
        9.17747       13.53369       14.62166       -0.834
        9.65273       13.93836       15.34733        0.417
        8.28479       13.86959       14.70243        0.417
        6.24235       12.03042       10.35013       -0.834
        5.33285       12.27141       10.52610        0.417
        6.60031       12.77787        9.87118        0.417
       14.56994       27.16832       14.51368       -0.834
       14.39376       27.81269       15.19923        0.417
       13.74837       27.10538       14.02661        0.417
       13.69424       13.63168        7.27554       -0.834
       14.12062       13.51216        6.42693        0.417
       14.22058       13.11286        7.88379        0.417
        6.76369       19.08489       20.25187       -0.834
        5.97670       19.62900       20.22342        0.417
        7.39133       19.54121       19.69144        0.417
       18.11603       11.03106       26.56432       -0.834
       18.17857       10.95064       27.51605        0.417
       18.02046       10.13089       26.25319        0.417
       21.53333        7.86484       21.93221       -0.834
       22.13656        8.57721       21.72040        0.417
       20.84638        8.27930       22.45428        0.417
       29.52097       12.05141       14.62515       -0.834
       30.23781       12.65168       14.83020        0.417
       29.40879       11.53095       15.42062        0.417
       14.10866       18.45415        6.39915       -0.834
       13.80139       19.32726        6.15527        0.417
       14.87756       18.30777        5.84815        0.417
        7.05443       13.71649        5.57973       -0.834
        7.46871       14.17419        6.31124        0.417
        6.39032       13.16174        5.98892        0.417
       28.32558       16.26845        9.28891       -0.834
       29.27606       16.27669        9.40182        0.417
       28.02536       15.54163        9.83466        0.417
       16.36351       16.52741       29.93043       -0.834
       16.51544       15.78693       29.34321        0.417
       17.12815       16.53798       30.50614        0.417
       19.11505       28.01820       20.12839       -0.834
       18.38172       27.40915       20.21518        0.417
       18.79154       28.83808       20.50171        0.417
       16.62399       13.86426       27.96029       -0.834
       17.29021       14.02415       28.62874        0.417
       16.09201       13.15293       28.31699        0.417
       31.14616       20.96527       13.99714       -0.834
       30.67554       21.41545       13.29566        0.417
       30.56105       20.25537       14.26158        0.417
       11.41167       20.46046       15.36846       -0.834
       11.38992       21.41000       15.48729        0.417
       12.11962       20.16323       15.94004        0.417
       12.68555       15.34400        9.68694       -0.834
       12.94286       15.00751        8.82857        0.417
       12.83717       16.28741        9.63019        0.417
        7.22373       19.26502        8.42752       -0.834
        6.45427       19.04659        7.90174        0.417
        7.95034       19.25684        7.80445        0.417
       16.59711       27.71973       25.57250       -0.834
       15.76010       27.63965       26.02992        0.417
       16.81827       28.64875       25.63764        0.417
        8.45791       22.31272       21.75831       -0.834
        9.04523       22.08669       21.03707        0.417
        9.03989       22.61127       22.45717        0.417
        3.23905        9.10714       17.97134       -0.834
        3.69354        9.71573       18.55382        0.417
        2.79454        8.49768       18.56058        0.417
       10.35154       16.04877        6.94451       -0.834
        9.65652       15.47719        7.27081        0.417
        9.93301       16.90412        6.84736        0.417
        8.40660       20.74716       18.70688       -0.834
        9.11941       21.37549       18.59135        0.417
        7.74544       21.01421       18.06829        0.417
       16.25241       21.91252        9.47812       -0.834
       16.11253       20.96631        9.44111        0.417
       16.94428       22.07806        8.83770        0.417
       19.86833       15.10756        2.87962       -0.834
       20.15175       14.46020        2.23400        0.417
       20.33483       14.86803        3.68039        0.417
        8.93704       20.60953       29.71379       -0.834
        9.52633       20.59332       28.95966        0.417
        8.39319       19.82868       29.61020        0.417
       10.40067       12.62382       12.39187       -0.834
        9.82919       12.78652       13.14231        0.417
       10.35989       11.67662       12.26006        0.417
       25.45693       19.80244        7.37783       -0.834
       25.39820       19.60476        6.44311        0.417
       25.62766       18.95643        7.79178        0.417
       29.17763       23.76253       12.80149       -0.834
       29.25434       23.10648       12.10870        0.417
       28.25511       23.73658       13.05549        0.417
       26.79017       15.86663       27.49953       -0.834
       27.55467       16.36385       27.20878        0.417
       27.15607       15.09920       27.93930        0.417
       21.16510       14.99005       13.89781       -0.834
       22.08279       14.89224       13.64383        0.417
       20.86264       15.75832       13.41355        0.417
       28.55329       14.20054       25.84522       -0.834
       29.48129       14.39138       25.98172        0.417
       28.38593       14.45895       24.93888        0.417
       10.47799       24.69208       27.28343       -0.834
       10.10856       24.28600       28.06756        0.417
       10.89925       25.49026       27.60229        0.417
       11.30957        6.66770       14.03583       -0.834
       11.60237        6.43315       13.15521        0.417
       10.35652        6.58546       14.00170        0.417
       12.32891       14.79433       27.37941       -0.834
       13.00151       15.46500       27.26094        0.417
       12.35497       14.59082       28.31436        0.417
       22.32120       15.93689        4.21303       -0.834
       22.96210       16.64289        4.12921        0.417
       22.30731       15.73519        5.14864        0.417
        2.69745       17.58804       13.17509       -0.834
        1.87762       17.99012       13.46223        0.417
        3.36165       18.25930       13.33155        0.417
       21.69235       11.95377       19.91941       -0.834
       22.24180       12.69107       20.18537        0.417
       21.70039       11.98134       18.96264        0.417
       22.66502       13.93827       21.52901       -0.834
       21.73566       14.05333       21.72719        0.417
       23.04393       13.60284       22.34150        0.417
       26.62721       22.76951       13.69253       -0.834
       26.93734       22.68730       14.59436        0.417
       26.21009       21.92872       13.50461        0.417
       10.19870       27.97025       20.08808       -0.834
        9.48128       27.61785       20.61473        0.417
       10.42233       27.26288       19.48322        0.417
       17.99887        7.71324        5.37059       -0.834
       18.39261        7.01295        4.85022        0.417
       17.17529        7.34259        5.68769        0.417
       20.31021       23.09128        5.98653       -0.834
       20.67276       23.97065        5.87935        0.417
       20.02396       22.84101        5.10809        0.417
        7.14967       16.35372       23.98557       -0.834
        7.42464       15.43819       24.03496        0.417
        6.71272       16.42763       23.13713        0.417
       15.00033       22.80357       20.09745       -0.834
       15.04211       23.20263       19.22840        0.417
       15.27597       21.89744       19.95895        0.417
       14.27774       16.99289       27.21417       -0.834
       14.31943       17.57521       26.45562        0.417
       15.10755       16.51609       27.19658        0.417
        7.01535       13.41881       24.23812       -0.834
        7.09774       13.21046       23.30751        0.417
        7.22171       12.59885       24.68680        0.417
        9.32291       11.68821       17.62922       -0.834
        9.40090       12.60529       17.36633        0.417
        9.17205       11.21585       16.81047        0.417
       16.85140       29.77069       21.19542       -0.834
       17.50353       30.23545       21.71975        0.417
       16.48274       29.11990       21.79273        0.417
       24.69460        7.24578       15.54444       -0.834
       24.75772        7.18187       16.49741        0.417
       24.72481        6.33861       15.24054        0.417
       25.44613       25.53324       13.53463       -0.834
       24.93748       25.58541       12.72544        0.417
       24.94012       24.94861       14.09890        0.417
        6.53071       10.28226       13.82963       -0.834
        6.01736        9.79939       14.47734        0.417
        5.93693       10.96218       13.51125        0.417
       14.75497       29.67353        9.93977       -0.834
       14.65169       28.78783        9.59178        0.417
       14.49251       29.60290       10.85757        0.417
        6.46576       14.91727       15.23744       -0.834
        6.29720       14.61062       14.34649        0.417
        5.78485       14.50227       15.76693        0.417
       10.68340       16.10045       19.09285       -0.834
       10.37553       16.94795       18.77163        0.417
       11.06907       16.29340       19.94741        0.417
       28.58807       24.16990       18.07377       -0.834
       28.76927       24.67023       17.27811        0.417
       28.55646       24.82738       18.76872        0.417
       20.46130       15.32779       20.60911       -0.834
       20.65383       16.24742       20.42623        0.417
       21.23123       14.85419       20.29425        0.417
       19.45310       15.04589       23.44983       -0.834
       19.41587       15.99653       23.55535        0.417
       19.74581       14.91583       22.54782        0.417
       20.73040       25.91458        5.67114       -0.834
       21.52022       26.22659        6.11281        0.417
       20.17027       26.68807        5.60628        0.417
        7.94728       11.13025       25.60554       -0.834
        8.60218       10.93738       24.93462        0.417
        7.80236       10.29341       26.04704        0.417
       25.87295       10.02961       14.67156       -0.834
       24.98370       10.28078       14.92132        0.417
       25.89924        9.08131       14.79907        0.417
        8.51792       23.25099       26.03301       -0.834
        9.19770       23.57814       26.62216        0.417
        8.45904       22.31616       26.23012        0.417
       24.87529        4.57060       20.21165       -0.834
       24.45743        4.83009       21.03280        0.417
       24.54054        3.69048       20.03968        0.417
       15.71259       16.81989        2.38549       -0.834
       16.06693       17.06711        1.53135        0.417
       15.39176       15.92645        2.26275        0.417
       12.82883        8.03844       15.64227       -0.834
       12.27906        7.59876       14.99368        0.417
       12.32168        7.99891       16.45311        0.417
       17.82042        6.10779       12.72644       -0.834
       17.71348        6.36106       13.64331        0.417
       16.93770        6.15655       12.35948        0.417
       10.01752       16.93785       29.69019       -0.834
        9.80274       16.85113       28.76144        0.417
        9.23545       17.32643       30.08211        0.417
       14.55860       22.40786        7.25900       -0.834
       15.30982       22.83346        6.84575        0.417
       14.88617       22.11600        8.10973        0.417
       14.16315       27.21719        9.03450       -0.834
       13.27799       27.05324        8.70926        0.417
       14.20682       26.73939        9.86277        0.417
       13.07096       19.50051       31.28440       -0.834
       12.26091       19.16488       31.66835        0.417
       13.23776       18.92684       30.53653        0.417
       15.72240        9.25101       24.56811       -0.834
       15.37200        8.52042       25.07772        0.417
       15.29734       10.02581       24.93586        0.417
       21.40055       20.21172       29.03704       -0.834
       21.80511       20.46418       29.86700        0.417
       20.59116       19.76766       29.28988        0.417
       11.98341        5.22224        8.73823       -0.834
       11.32598        4.89240        9.35078        0.417
       12.34000        4.43692        8.32307        0.417
       10.41154       20.60776        5.09789       -0.834
       11.34799       20.55084        5.28778        0.417
       10.36853       20.84821        4.17238        0.417
        7.16967       21.44330       16.11412       -0.834
        7.72710       22.14359       15.77485        0.417
        7.57994       20.63709       15.80117        0.417
       21.10026       14.65175       30.99825       -0.834
       20.70968       14.03788       31.62021        0.417
       21.48614       14.09513       30.32186        0.417
       22.02263       23.10608       26.29059       -0.834
       22.73851       23.69558       26.05342        0.417
       21.73670       23.41020       27.15198        0.417
       19.70778        5.38001        8.04660       -0.834
       18.87722        4.91244        7.95837        0.417
       19.68189        5.75083        8.92867        0.417
        4.97621        9.20702        9.84681       -0.834
        5.29861        9.31931       10.74106        0.417
        5.69456        8.77435        9.38528        0.417
        6.11778       16.31671       20.77646       -0.834
        6.44888       17.21482       20.77347        0.417
        6.87061       15.78255       20.52317        0.417
       27.47594       27.09021       14.13463       -0.834
       28.15071       26.42830       14.28560        0.417
       26.70299       26.58970       13.87335        0.417
       23.40980       11.40564       11.97575       -0.834
       23.48018       10.47181       11.77768        0.417
       22.51008       11.51883       12.28221        0.417
       28.80649       15.36071       21.81211       -0.834
       29.21423       14.66372       22.32609        0.417
       28.15116       15.73916       22.39826        0.417
       19.43719       17.83626       23.45270       -0.834
       18.95611       18.40391       24.05484        0.417
       20.21926       18.33807       23.22295        0.417
       12.27273       23.67288        5.86565       -0.834
       13.02433       23.19172        6.21179        0.417
       11.80748       23.98258        6.64273        0.417
       18.31419       25.88277       28.46897       -0.834
       17.67845       25.38850       27.95151        0.417
       18.02460       25.77194       29.37455        0.417
       13.04460       15.82075       22.60122       -0.834
       13.40751       15.55675       21.75574        0.417
       13.74272       15.63726       23.22987        0.417
        3.30060       15.82139       16.56509       -0.834
        3.09499       16.22342       17.40908        0.417
        3.75784       15.01116       16.79025        0.417
       23.72540       15.52542        9.49711       -0.834
       23.82890       15.98895       10.32817        0.417
       24.24314       14.72711        9.60148        0.417
        7.87511       12.99282       21.66398       -0.834
        8.61481       13.41664       22.09924        0.417
        7.71770       13.52588       20.88468        0.417
       16.53290       25.01240       21.05730       -0.834
       16.14606       24.13779       21.01672        0.417
       16.73059       25.14459       21.98449        0.417
       31.27195       14.29177       15.30510       -0.834
       31.22067       14.34703       16.25933        0.417
       32.20132       14.40794       15.10759        0.417
       29.52542        8.59218       20.43541       -0.834
       29.79075        8.15821       19.62455        0.417
       29.29027        9.48022       20.16648        0.417
       18.01187        5.29263       15.69819       -0.834
       17.27279        5.90014       15.72853        0.417
       17.63099        4.46592       15.40204        0.417
       14.13452       11.04844       21.15667       -0.834
       14.26314       10.14152       20.87887        0.417
       14.97605       11.30577       21.53322        0.417
       11.97875       17.18938       24.89105       -0.834
       12.17605       18.06991       24.57171        0.417
       12.20238       16.61328       24.16007        0.417
       13.84906       27.54234       26.09628       -0.834
       13.11835       27.42886       25.48848        0.417
       13.43624       27.61614       26.95673        0.417
       24.81295       18.26883       26.12409       -0.834
       24.43848       17.58758       26.68256        0.417
       25.75048       18.07653       26.10683        0.417
        9.98789       23.66600       23.52431       -0.834
       10.83498       24.10437       23.60501        0.417
        9.78352       23.37340       24.41248        0.417
       23.52524        8.69879       11.58731       -0.834
       23.43610        8.57930       10.64179        0.417
       24.41207        8.39750       11.78474        0.417
       26.58882       19.77769       14.18564       -0.834
       27.40104       20.21596       14.43951        0.417
       26.76257       19.44063       13.30676        0.417
       24.92507       21.73622       20.11593       -0.834
       24.61499       22.63481       20.22833        0.417
       25.87546       21.81841       20.03695        0.417
       10.52299       13.43001        9.76626       -0.834
       10.44335       13.11853       10.66785        0.417
       11.27482       14.02223        9.78248        0.417
       14.60845       12.20866        3.66824       -0.834
       15.18211       12.93193        3.92129        0.417
       14.07387       12.56358        2.95799        0.417
       24.77353       22.51187       11.37612       -0.834
       25.08069       22.24026       10.51118        0.417
       25.53403       22.92920       11.78073        0.417
       24.63301       20.58859       22.62879       -0.834