%Nproc=32
%Mem=120Gb
%chk=temp.chk
#p cam-b3lyp/6-31+G(d,p) nosymm charge Freq 

Calculation for S0 with freq for abs spect

0  1
 C         17.44735       16.87579       15.37163
 C         17.41246       17.06281       17.79227
 C         16.23836       16.51795       17.95900
 C         15.54530       16.04761       16.74686
 N         16.15400       16.38654       15.53856
 H         17.97624       17.61434       18.59958
 H         15.84027       16.36138       18.97188
 O         14.37344       15.60919       16.79748
 O         17.97942       17.01709       14.29578
 N         17.95364       17.28564       16.56990
 H         18.89422       17.65847       16.55258
 H         15.59400       16.37815       14.64712
 O         17.45545       17.26877       21.58286
 H         17.73552       17.00635       22.45975
 H         18.02413       16.77550       20.99165
 O         17.75820       13.89955       21.11349
 H         18.46147       13.25104       21.14645
 H         17.25791       13.67141       20.32998
 O         14.85052       20.77317       14.75328
 H         14.62810       21.16734       13.90984
 H         15.04253       21.51796       15.32307
 O         17.14119       21.18065       18.62156
 H         16.45406       20.71137       18.14842
 H         16.78189       22.05705       18.75963
 O         14.85784       20.24425       17.90393
 H         14.26921       19.62955       18.34196
 H         14.50599       20.32302       17.01723
 O         13.85492       16.15441       13.75645
 H         13.31480       15.78575       14.45544
 H         14.27328       15.39513       13.35062
 O         12.69824       16.09340       18.87268
 H         12.78461       16.92777       19.33376
 H         13.36971       16.12514       18.19125
 O         16.58209       12.22951       18.64562
 H         16.68305       12.10411       17.70205
 H         15.63551       12.26658       18.78286
 O         20.91259       14.19720       18.32085
 H         20.05277       13.84761       18.08691
 H         21.51193       13.46059       18.20073
 O         15.55402       12.90569       15.72071
 H         15.43509       13.84773       15.59963
 H         14.73610       12.51849       15.40877
 O         15.15250       18.52723       13.03258
 H         14.60906       17.76064       13.21489
 H         15.10719       19.04947       13.83349
 O         19.52147       19.86475       19.29263
 H         19.95094       20.71913       19.33536
 H         18.58571       20.06620       19.29389
 O         20.05956       18.73485       14.04765
 H         19.52944       17.94560       14.15851
 H         20.39961       18.92046       14.92295
 O         13.69812       12.81665       18.77016
 H         13.54413       13.19493       17.90447
 H         12.93360       13.07559       19.28465
 O         20.52884       18.87634       16.95038
 H         20.41286       19.22479       17.83432
 H         21.18536       18.18672       17.04849
 
       16.76369       23.86558       19.23969       -0.834
       17.06997       23.82015       20.14543        0.417
       17.22541       24.61700       18.86763        0.417
        8.77399       13.17226        4.04415       -0.834
        8.90042       13.56436        4.90815        0.417
        7.94909       12.69217        4.11687        0.417
       27.50177       13.16487       26.25691       -0.834
       26.80833       13.24337       25.60177        0.417
       27.78191       14.06570       26.41896        0.417
       25.90066       13.63076       23.93378       -0.834
       26.76352       13.66600       23.52092        0.417
       25.28604       13.58267       23.20155        0.417
       16.69348       18.33037        2.52465       -0.834
       16.40278       18.65996        1.67430        0.417
       16.33574       17.44387        2.57348        0.417
       16.61257       24.29894       22.02383       -0.834
       16.25429       24.41512       22.90381        0.417
       17.21993       25.03050       21.91348        0.417
       24.34451        6.04729       11.13920       -0.834
       24.60558        6.27019       10.24568        0.417
       25.15917        5.78782       11.56959        0.417
       11.85665       28.68742       15.24038       -0.834
       12.06524       27.96951       15.83815        0.417
       10.90194       28.75144       15.26613        0.417
        5.63145       17.36149       12.91866       -0.834
        5.80655       18.22774       12.55101        0.417
        6.45888       16.88941       12.82528        0.417
       20.24771       19.63214       30.03885       -0.834
       20.12781       19.67002       30.98775        0.417
       19.36245       19.70431       29.68202        0.417
       12.20879       12.73234       12.15980       -0.834
       11.39000       13.02700       11.76107        0.417
       12.40839       11.90772       11.71664        0.417
       24.74670       17.12714       16.95939       -0.834
       25.60298       17.12059       17.38713        0.417
       24.94512       17.20653       16.02635        0.417
       12.14207       23.38016       26.88153       -0.834
       11.77878       23.30183       25.99943        0.417
       12.57955       22.54293       27.03612        0.417
       15.02961       32.01903       17.52979       -0.834
       15.67084       31.45449       17.09810        0.417
       14.30895       32.08634       16.90342        0.417
       24.33234       23.68672       10.00384       -0.834
       23.56196       23.79527       10.56147        0.417
       24.31131       22.76626        9.74203        0.417
       24.07751       14.24202       27.59001       -0.834
       23.53488       14.09937       26.81449        0.417
       24.05061       13.40773       28.05849        0.417
       20.17455        7.69614       24.11898       -0.834
       20.35188        7.89892       25.03750        0.417
       20.58875        6.84499       23.97683        0.417
        8.58632       19.39102       19.29248       -0.834
        9.16021       18.90526       18.70008        0.417
        8.43434       20.22545       18.84880        0.417
       21.50143       17.60505       22.19166       -0.834
       21.14244       16.89711       21.65670        0.417
       20.85665       18.30907       22.12209        0.417
       16.15447        8.16099       15.51099       -0.834
       16.93126        8.46686       15.04273        0.417
       15.42177        8.58096       15.06043        0.417
       27.20544       10.65570       10.90307       -0.834
       26.60814       10.10039       10.40197        0.417
       27.93875       10.81646       10.30924        0.417
       17.75760       17.28270       26.09131       -0.834
       18.01908       16.43101       26.44128        0.417
       18.08744       17.28446       25.19274        0.417
       18.86407        4.13845       23.09983       -0.834
       19.27706        4.44854       22.29390        0.417
       19.40597        4.49945       23.80144        0.417
        7.71939       24.44741        7.99396       -0.834
        8.35357       25.15114        8.13108        0.417
        6.86709       24.86454        8.11975        0.417
        6.52492        9.33354       22.28961       -0.834
        6.12926        8.47912       22.46184        0.417
        6.07520        9.65296       21.50734        0.417
       27.49802       19.43645        6.08034       -0.834
       26.56897       19.64751        6.17275        0.417
       27.51076       18.62950        5.56566        0.417
       25.08549       19.99590       18.01821       -0.834
       24.29587       20.28416       18.47606        0.417
       24.80165       19.24150       17.50193        0.417
       21.02264        6.26297        9.17951       -0.834
       20.32382        5.66553        8.91315        0.417
       21.82687        5.84247        8.87516        0.417
       17.22336        6.92181       20.47811       -0.834
       16.69433        6.15717       20.70544        0.417
       16.80918        7.27465       19.69059        0.417
       15.83228        3.58078       15.49655       -0.834
       16.29468        3.36065       16.30523        0.417
       14.97734        3.89790       15.78765        0.417
       13.79857       28.40563       24.15533       -0.834
       13.35360       27.86436       24.80745        0.417
       14.44554       28.90205       24.65657        0.417
       17.13356        8.78483       26.57798       -0.834
       16.77102        9.62801       26.30623        0.417
       17.81297        9.00942       27.21373        0.417
       22.70033        5.40727       23.39559       -0.834
       23.26127        5.86848       22.77200        0.417
       22.91303        4.48233       23.27120        0.417
        6.70226       20.14155       11.13368       -0.834
        6.91432       19.42952       10.53014        0.417
        7.50911       20.28528       11.62822        0.417
        8.95646        8.68411       11.02307       -0.834
        9.41607        8.19829       11.70788        0.417
        9.62511        8.85437       10.35964        0.417
       21.78777        4.74082       13.83015       -0.834
       21.84978        5.34504       13.09034        0.417
       22.20455        3.93717       13.51922        0.417
        9.64308       20.72891       23.51312       -0.834
        9.52395       20.38137       24.39701        0.417
        8.75655       20.92791       23.21199        0.417
       24.29948        5.68976       18.29391       -0.834
       23.87632        5.67734       17.43541        0.417
       23.66535        5.27677       18.88003        0.417
        6.31278       21.24710        8.14837       -0.834
        5.41918       21.03916        8.42125        0.417
        6.22646       21.52682        7.23703        0.417
        6.52695       25.71934       18.86110       -0.834
        7.29256       25.97390       19.37614        0.417
        6.12754       26.54876       18.59886        0.417
       19.50365       13.70855       24.22848       -0.834
       19.88258       12.85288       24.02730        0.417
       18.57322       13.61280       24.02510        0.417
       20.38918       10.87585       24.10405       -0.834
       19.91526       10.04525       24.06228        0.417
       20.91200       10.81391       24.90346        0.417
       20.75880       22.15588       14.72931       -0.834
       20.13844       21.44406       14.57213        0.417
       21.11449       21.97641       15.59966        0.417
       21.81834       13.59970       13.66158       -0.834
       20.89256       13.36814       13.58706        0.417
       21.83618       14.55175       13.56409        0.417
       14.90183       13.91373       12.66018       -0.834
       15.66889       13.34222       12.69535        0.417
       14.15568       13.31881       12.73472        0.417
       25.37760       27.21920       15.81792       -0.834
       25.68845       27.28194       16.72106        0.417
       25.51121       26.30137       15.58134        0.417
       20.21240       27.94997       16.31696       -0.834
       19.85266       27.15620       16.71288        0.417
       21.11029       27.99627       16.64541        0.417
       19.99953       15.63769       20.56284       -0.834
       20.47263       15.30852       19.79860        0.417
       19.46829       14.89649       20.85379        0.417
       10.31858        7.55253       20.40472       -0.834
       10.04289        6.69192       20.72028        0.417
        9.77018        8.17176       20.88644        0.417
       15.39158       22.29604        9.22880       -0.834
       15.03445       22.92093        9.85984        0.417
       15.66580       21.54858        9.76016        0.417
       25.08548        5.96369       21.57271       -0.834
       25.10156        5.01667       21.71096        0.417
       24.76093        6.07021       20.67853        0.417
        7.79866       14.41333       19.07122       -0.834
        7.52338       14.34683       18.15687        0.417
        8.55672       14.99744       19.05175        0.417
       24.70962       17.24887        7.78458       -0.834
       24.87410       17.77067        8.57001        0.417
       24.29064       16.45186        8.10934        0.417
       13.13588       10.94190        6.06937       -0.834
       13.10433       11.56037        6.79925        0.417
       12.45323       10.30104        6.26817        0.417
       24.98339       18.64591       24.18040       -0.834
       25.73391       18.30188       23.69605        0.417
       24.65823       17.89824       24.68190        0.417
        5.43298        8.53586       15.45436       -0.834
        5.82579        9.39177       15.28305        0.417
        4.60957        8.73459       15.90016        0.417
        8.08084       11.89289       20.45132       -0.834
        7.73923       11.27367       19.80627        0.417
        8.06375       12.73907       20.00420        0.417
       23.07146       11.37920        4.66024       -0.834
       22.97550       12.20371        5.13692        0.417
       22.97338       11.62153        3.73943        0.417
       10.03672       16.07920       18.31354       -0.834
       10.10662       16.67380       17.56668        0.417
       10.93876       15.96038       18.61093        0.417
       26.20300       10.02344       22.82440       -0.834
       26.69381        9.56411       23.50583        0.417
       25.32675        9.63982       22.85983        0.417
       10.12569       26.41933       12.05055       -0.834
        9.33759       25.90015       11.89065        0.417
       10.43839       26.65604       11.17739        0.417
       25.39402       15.96749       26.06975       -0.834
       25.48211       15.36711       25.32947        0.417
       24.86217       15.48846       26.70528        0.417
       28.65092       21.05260       13.26022       -0.834
       28.58234       21.10271       14.21364        0.417
       29.07705       20.21173       13.09413        0.417
       26.08832       14.73610        5.48454       -0.834
       25.22528       15.14025        5.57432        0.417
       26.03152       14.22588        4.67665        0.417
       15.70692       13.06374       28.15381       -0.834
       15.11610       13.55824       27.58580        0.417
       15.12673       12.59581       28.75435        0.417
       13.98651       22.45147       29.56964       -0.834
       14.49735       23.22557       29.33286        0.417
       14.47820       21.71753       29.20113        0.417
       29.79467        9.63339       15.46884       -0.834
       30.18153       10.49786       15.33003        0.417
       28.85190        9.77607       15.38481        0.417
        1.78264       15.14453       12.11578       -0.834
        2.54816       15.69985       12.26359        0.417
        2.07090       14.50750       11.46207        0.417
       21.99881        8.02542        7.12419       -0.834
       21.67304        7.87050        8.01082        0.417
       21.25092        7.83677        6.55735        0.417
        9.74938       13.03299        7.38633       -0.834
       10.15324       13.86789        7.14956        0.417
        8.93345       13.27653        7.82358        0.417
        7.46269       16.53745       21.82337       -0.834
        6.77971       17.16808       21.59521        0.417
        7.14227       15.70262       21.48187        0.417
        9.79836        6.82461       12.69694       -0.834
       10.08545        7.42608       13.38400        0.417
       10.57981        6.31540       12.48184        0.417
       21.66407       16.22542       12.55611       -0.834
       22.09485       16.94422       13.01871        0.417
       21.97540       16.29983       11.65402        0.417
       23.98210        9.15001        5.88963       -0.834
       23.82063       10.02280        5.53130        0.417
       23.20996        8.96318        6.42359        0.417
        7.72919        5.04807       13.66628       -0.834
        8.39057        5.66248       13.34801        0.417
        7.98272        4.87047       14.57205        0.417
       23.06764       12.48975       18.27287       -0.834
       23.60034       11.72738       18.49925        0.417
       23.69758       13.20503       18.18467        0.417
       20.66070       21.07258       26.96526       -0.834
       20.39436       20.39635       26.34235        0.417
       20.53633       20.66969       27.82459        0.417
        9.84448       18.22426       16.45485       -0.834
       10.57252       18.83519       16.34109        0.417
        9.07303       18.71473       16.17106        0.417
        4.24069       20.75034       11.96528       -0.834
        5.08835       20.46035       11.62824        0.417
        4.35273       21.68797       12.12191        0.417
       19.58935        8.09739        5.65479       -0.834
       18.85893        7.53391        5.91015        0.417
       19.32314        8.97475        5.92975        0.417
       20.21684       20.32679       11.30275       -0.834
       19.65507       21.09595       11.20772        0.417
       19.94540       19.93228       12.13155        0.417
       22.97178       29.48450       11.09656       -0.834
       22.25290       28.94081       10.77430        0.417
       23.76317       29.04495       10.78555        0.417
        8.52123       23.81351       15.67494       -0.834
        9.31621       24.10280       16.12278        0.417
        8.78998       23.69028       14.76454        0.417
       13.98763        9.73738       14.48877       -0.834
       14.48397       10.21090       13.82120        0.417
       13.11999       10.14140       14.47436        0.417
       16.80482       19.58511       30.93396       -0.834
       17.39211       19.90459       31.61899        0.417
       16.98716       18.64699       30.87983        0.417
       17.66809        5.05672       10.09199       -0.834
       17.86821        5.57432       10.87191        0.417
       16.89612        5.47904        9.71525        0.417
        3.73048       12.06798       12.48092       -0.834
        4.04376       12.90702       12.81870        0.417
        2.81785       12.02032       12.76566        0.417
       17.06589       30.48660       22.07201       -0.834
       16.42140       31.18545       21.96035        0.417
       16.89717       29.88626       21.34581        0.417
        8.99315       21.53373        6.46989       -0.834
        8.38566       21.59127        5.73241        0.417
        8.45040       21.69719        7.24121        0.417
       29.70127       21.12389       21.05202       -0.834
       28.91287       21.09705       21.59417        0.417
       29.98933       20.21243       21.00210        0.417
       10.40884       22.41824       10.16390       -0.834
        9.60272       22.73662        9.75767        0.417
       11.06635       23.07725        9.94113        0.417
       21.33191       10.22147       17.41308       -0.834
       21.89166       10.97924       17.24370        0.417
       21.34636        9.72477       16.59496        0.417
       15.77396        7.96761       18.38866       -0.834
       15.94625        8.15216       17.46535        0.417
       15.18061        8.66555       18.66623        0.417
       16.74049        8.48934       10.84070       -0.834
       17.64426        8.59371       11.13826        0.417
       16.66475        9.08026       10.09149        0.417
       16.65120       13.53082       23.99179       -0.834
       16.51852       13.45905       23.04656        0.417
       15.83458       13.90637       24.32093        0.417
       25.15928       21.34002       24.98364       -0.834
       24.96690       21.01209       25.86210        0.417
       25.39066       20.55883       24.48120        0.417
        9.41807        9.21918       22.44826       -0.834
        8.48831        9.39663       22.59074        0.417
        9.79836       10.07526       22.25145        0.417
       26.10937       24.95550        8.30891       -0.834
       25.70858       24.41829        8.99230        0.417
       26.30221       24.33977        7.60185        0.417
        8.12287       18.72346        7.13845       -0.834
        7.84488       19.54936        6.74241        0.417
        8.02204       18.07654        6.44019        0.417
        7.33214       10.78502       18.14586       -0.834
        7.53995        9.88126       17.90870        0.417
        6.67092       11.05445       17.50834        0.417
       13.93906       22.19681       12.68736       -0.834
       13.60344       21.56989       12.04661        0.417
       13.97134       23.02872       12.21500        0.417
        3.70242       16.97662       10.41912       -0.834
        4.65703       17.04638       10.42862        0.417
        3.51435       16.35264        9.71804        0.417
       28.40838       11.25114        8.27394       -0.834
       28.56194       11.31513        7.33131        0.417
       27.48036       11.02977        8.35143        0.417
        8.00674       11.14034       11.83657       -0.834
        7.68436       11.42512       10.98147        0.417
        8.43826       10.30357       11.66385        0.417
       24.90024       24.21863       17.83520       -0.834
       25.20460       24.02350       16.94891        0.417
       25.55162       23.81300       18.40739        0.417
       18.47819       10.80851        6.58989       -0.834
       18.90985       11.51157        6.10449        0.417
       17.54376       10.95192        6.43989        0.417
        5.73731       16.97661       26.28354       -0.834
        6.50703       16.67516       25.80094        0.417
        5.26086       16.17519       26.50022        0.417
        8.75226       19.68540       13.27690       -0.834
        9.63862       20.02887       13.38931        0.417
        8.87881       18.80890       12.91364        0.417
       10.49867        9.13449       28.27048       -0.834
       10.75476        9.70261       27.54392        0.417
       10.03574        8.40712       27.85472        0.417
       26.30074        6.02626       14.46885       -0.834
       26.64178        5.91810       13.58103        0.417
       25.89670        6.89400       14.46668        0.417
       20.40841       23.46280       24.01967       -0.834
       20.08493       23.84999       24.83311        0.417
       21.16956       22.94686       24.28553        0.417
        8.29383       21.53802       17.66270       -0.834
        7.86518       21.16369       16.89305        0.417
        8.67977       22.35569       17.34854        0.417
       11.77720        4.50862       16.72070       -0.834
       12.56427        5.03315       16.86775        0.417
       11.88706        3.74643       17.28923        0.417
       21.60015        7.42016       11.53515       -0.834
       21.25548        7.19735       10.67040        0.417
       22.44418        6.97091       11.58014        0.417
        5.86539        7.43261       10.78247       -0.834
        6.74829        7.33140       11.13811        0.417
        5.59811        8.31185       11.05030        0.417
       18.88414       15.02334       26.91003       -0.834
       18.57933       14.36306       27.53240        0.417
       18.94677       14.55676       26.07660        0.417
       12.50517       31.53693       15.57547       -0.834
       12.23399       30.62302       15.48908        0.417
       12.27404       31.93614       14.73675        0.417
       19.06878       25.99535       11.77728       -0.834
       19.76471       26.55724       12.11815        0.417
       19.42609       25.10920       11.83458        0.417
       23.80558       16.37143       10.60003       -0.834
       24.44150       16.13558       11.27547        0.417
       24.07373       17.24404       10.31216        0.417
       24.58006       19.48802        6.12449       -0.834
       24.38238       18.72423        6.66650        0.417
       24.00523       20.17582        6.46025        0.417
       20.46619        6.07713       18.63397       -0.834
       21.16385        6.08191       17.97862        0.417
       19.65718        6.05041       18.12306        0.417
        6.26620       12.30721       22.74664       -0.834
        6.52708       11.39244       22.63996        0.417
        6.43117       12.49769       23.67007        0.417
       21.91567       19.16806        9.43459       -0.834
       21.50845       18.60886        8.77299        0.417
       21.17961       19.53936        9.92101        0.417
       27.23473       19.03204       19.66976       -0.834
       27.32796       19.38089       20.55624        0.417
       26.59302       19.60647       19.25206        0.417
       14.01314        9.96455       18.68012       -0.834
       13.28290        9.53425       18.23534        0.417
       13.85739       10.89965       18.54763        0.417
       15.52857       19.84775       10.65380       -0.834
       14.71877       19.71294       10.16158        0.417
       15.38912       19.38098       11.47776        0.417
       24.13029       26.63420        7.74005       -0.834
       24.97472       26.28275        8.02228        0.417
       23.63750       26.75552        8.55163        0.417
        6.76007       22.39870       25.91189       -0.834
        7.31245       21.63960       25.72515        0.417
        5.95284       22.02655       26.26703        0.417
       19.38420       10.31549        9.11614       -0.834
       19.38053       10.40098        8.16278        0.417
       19.68115       11.16872        9.43246        0.417
       26.66687       22.49030       19.31891       -0.834
       27.18221       21.69170       19.20538        0.417
       25.88140       22.20475       19.78553        0.417
       27.25610       17.49874       17.43957       -0.834
       28.09050       17.14685       17.12944        0.417
       27.49239       18.06293       18.17584        0.417
       17.97228       22.78358       16.27703       -0.834
       17.78583       22.24728       17.04765        0.417
       18.86787       23.09357       16.41136        0.417
       22.36260       24.23101       11.47361       -0.834
       22.70164       24.17306       12.36687        0.417
       21.41123       24.20481       11.57584        0.417
       12.96327       21.72921        6.11681       -0.834
       13.25705       22.51662        6.57497        0.417
       13.74881       21.39740        5.68199        0.417
       11.09777        8.87418        8.91013       -0.834
       11.20923        9.03810        7.97368        0.417
       11.69458        8.15024        9.09974        0.417
        3.25115       11.96227       23.01745       -0.834
        4.20524       11.92377       22.95062        0.417
        3.06430       11.72275       23.92516        0.417
       21.91283        5.25999       16.42573       -0.834
       22.12252        5.18712       15.49463        0.417
       21.92281        4.35777       16.74531        0.417
       22.38596       21.77845       24.82135       -0.834
       23.33063       21.67778       24.93840        0.417
       22.00242       21.35285       25.58816        0.417
       13.72967        7.22144       22.84809       -0.834
       14.51467        7.69101       23.13005        0.417
       13.52555        7.58965       21.98844        0.417
        7.37692       22.66550       10.22205       -0.834
        7.14415       23.07832        9.39041        0.417
        7.03525       21.77415       10.15144        0.417
        9.19634       27.66105       14.33065       -0.834
        8.45426       28.05286       13.87017        0.417
        9.47976       26.94436       13.76296        0.417
       12.93341       23.15999       16.85192       -0.834
       13.06144       23.59596       17.69439        0.417
       13.74086       23.33204       16.36751        0.417
       23.74556       10.34549       25.23803       -0.834
       23.89254       11.29134       25.24103        0.417
       24.42939        9.99456       25.80851        0.417
       21.57927       13.49748        3.54186       -0.834
       21.85261       13.81153        2.67995        0.417
       21.39121       14.29365        4.03884        0.417
       15.59810       25.76460        6.18755       -0.834
       15.00903       25.05983        6.45687        0.417
       15.04879       26.54849        6.18444        0.417
       14.59913        5.81513       16.88847       -0.834
       15.25018        6.33287       16.41486        0.417
       14.66457        6.11770       17.79423        0.417
       21.43765       21.80996       17.26070       -0.834
       21.93592       21.10504       17.67427        0.417
       21.56825       22.56484       17.83458        0.417
       19.54344       27.23317       19.67053       -0.834
       18.80210       27.03879       19.09706        0.417
       19.67303       28.17755       19.58349        0.417
       15.90956        8.82520       23.34647       -0.834
       16.62337        9.00243       23.95908        0.417
       16.17656        9.25757       22.53530        0.417
       27.76293       22.79237       11.43005       -0.834
       28.47685       23.37839       11.68130        0.417
       27.89746       22.00827       11.96234        0.417
       16.37631       10.60898        9.26943       -0.834
       15.90996       11.40745        9.02204        0.417
       17.29776       10.80807        9.10354        0.417
       13.89747       25.61607       15.03810       -0.834
       13.19380       25.13986       14.59730        0.417
       13.51124       25.90334       15.86546        0.417
       16.47019       10.39204       21.11969       -0.834