%Nproc=32
%Mem=120Gb
%chk=temp.chk
#p cam-b3lyp/6-31+G(d,p) nosymm charge Freq 

Calculation for S0 with freq for abs spect

0  1
 C         15.38485       15.83067       16.35906
 C         17.77277       15.79533       16.39958
 C         17.89816       17.11895       16.59159
 C         16.68755       17.80946       16.83962
 N         15.53708       17.10187       16.74351
 H         18.57214       15.09590       16.36531
 H         18.87791       17.63079       16.65605
 O         16.65833       19.00661       17.05816
 O         14.33276       15.29571       16.15251
 N         16.60050       15.22135       16.41578
 H         16.68365       14.20406       16.61268
 H         14.74482       17.71153       16.75472
 O         14.27796       20.85070       17.29061
 H         14.05407       21.19438       16.42575
 H         15.16290       20.50058       17.18799
 O         17.11331       12.60167       17.24909
 H         16.65181       12.47028       18.07733
 H         17.96424       12.18317       17.37949
 O         12.55508       13.63312       17.68359
 H         13.30328       13.48357       17.10559
 H         12.34619       12.76745       18.03460
 O         17.54132       11.52378       14.52324
 H         17.00386       11.65947       15.30359
 H         17.77769       12.40645       14.23818
 O         14.94592       18.38370       19.66361
 H         15.79481       17.94149       19.65497
 H         14.41618       17.89862       19.03091
 O         13.44279       15.82386       19.14277
 H         13.13109       15.00253       18.76267
 H         14.27650       15.59661       19.55450
 O         20.29479       18.79328       14.86900
 H         19.88918       18.31969       14.14275
 H         19.68149       19.50126       15.06615
 O         12.86643       18.59124       17.32630
 H         13.05064       19.48554       17.61359
 H         12.15701       18.29697       17.89760
 O         19.66437       15.83424       18.81233
 H         19.80676       16.12943       17.91298
 H         20.32258       16.30266       19.32571
 O         12.53916       19.00931       14.50271
 H         12.61123       18.72017       15.41234
 H         12.00359       19.80156       14.54444
 O         18.88521       13.49670       19.89464
 H         19.07877       14.28581       19.38859
 H         19.58914       12.88846       19.66936
 O         16.74640       20.81736       20.18721
 H         16.30389       20.05861       19.80679
 H         16.76489       20.63802       21.12727
 O         15.05483       18.71233       13.84621
 H         15.39194       19.55610       14.14730
 H         14.10306       18.80843       13.87957
 O         16.37723       16.76065       12.36095
 H         15.68747       16.10049       12.29277
 H         16.10929       17.31270       13.09558
 O         15.72387       14.65269       20.55455
 H         16.50321       14.93489       20.07577
 H         15.82113       13.70371       20.63332
 O         21.13882       16.71656       16.82690
 H         22.03956       16.85684       17.11885
 H         21.01054       17.35767       16.12779
 O         17.51666       17.26605       19.99336
 H         18.11973       17.28426       20.73646
 H         17.98235       16.77232       19.31839
 O         17.85452       14.05227       13.37221
 H         18.73845       14.36381       13.56675
 H         17.66918       14.38836       12.49532
 O         18.91985       17.41177       12.46441
 H         18.00010       17.15864       12.38562
 H         19.07349       17.99287       11.71946
 O         18.65027       20.91345       15.91807
 H         17.91333       20.32808       16.09267
 H         18.93364       21.20738       16.78383
 O         13.26324       14.49152       13.51826
 H         13.49285       14.59803       14.44139
 H         12.34873       14.76913       13.46484
 
        9.67688       13.54141        6.41494       -0.834
        9.41613       12.81420        5.84978        0.417
        9.19184       13.39946        7.22784        0.417
       30.98374       17.80010       18.89945       -0.834
       30.83920       18.72001       19.12106        0.417
       31.87110       17.77608       18.54134        0.417
       15.31698       24.55332       27.42012       -0.834
       16.08642       24.14806       27.82009        0.417
       15.15421       25.33384       27.94977        0.417
       21.24358       12.74458       15.02264       -0.834
       21.04851       12.19004       14.26722        0.417
       21.36916       13.61847       14.65279        0.417
       19.73903       22.07206       27.48215       -0.834
       19.65752       21.88035       26.54789        0.417
       20.26119       22.87349       27.51802        0.417
       19.03273       21.40775       24.83609       -0.834
       19.04349       21.86117       23.99316        0.417
       18.10452       21.25994       25.01725        0.417
        5.29772       14.21298       19.07460       -0.834
        4.44354       14.17811       19.50518        0.417
        5.75959       14.92631       19.51512        0.417
        6.47446       24.74281       24.61367       -0.834
        6.58230       24.83793       25.56001        0.417
        7.07799       24.03998       24.37280        0.417
       23.03732       11.94825        5.74427       -0.834
       22.83680       12.83434        6.04571        0.417
       23.58363       12.07644        4.96881        0.417
       23.45785        8.14227       26.80112       -0.834
       24.13648        8.75130       26.50996        0.417
       23.49635        7.42159       26.17233        0.417
       11.36476       13.87813       10.65460       -0.834
       11.02675       14.69278       10.28268        0.417
       11.45785       14.06156       11.58943        0.417
       11.21642        7.12367       23.50428       -0.834
       12.10397        6.91867       23.79834        0.417
       11.10705        6.61667       22.69977        0.417
        9.45131       19.19919       20.27264       -0.834
        9.83642       19.61468       21.04419        0.417
       10.13562       18.61350       19.94874        0.417
       17.31851       11.87532       31.56829       -0.834
       17.71762       11.05358       31.28248        0.417
       17.71162       12.54178       31.00479        0.417
       10.74890       15.49684       13.80003       -0.834
       10.50232       16.41945       13.73497        0.417
       10.71057       15.30367       14.73675        0.417
       20.00228        9.33534       20.80386       -0.834
       19.88909        9.41811       21.75074        0.417
       20.28228       10.20512       20.51870        0.417
       19.54508       23.26309       12.91968       -0.834
       20.26963       23.47394       12.33078        0.417
       18.79961       23.11218       12.33853        0.417
       10.01577        9.53461       17.38861       -0.834
        9.67548        9.22131       18.22663        0.417
       10.21147        8.73758       16.89599        0.417
       15.82270       29.63808       12.18590       -0.834
       15.26401       28.86089       12.19483        0.417
       16.62188       29.35404       11.74221        0.417
       16.60930       25.86289        5.28693       -0.834
       15.97609       26.51315        5.59096        0.417
       17.37598       26.37576        5.03121        0.417
       11.26533       26.86757       11.72145       -0.834
       10.81000       26.54739       12.50016        0.417
       10.89106       27.73439       11.56402        0.417
       12.62809       22.16899       15.40506       -0.834
       11.85747       21.94027       15.92473        0.417
       12.93462       22.99429       15.78079        0.417
       12.96200       23.93084        5.90204       -0.834
       12.01697       23.96775        5.75434        0.417
       13.15600       24.71698        6.41252        0.417
        7.77006       16.00462       17.27960       -0.834
        7.12330       15.77307       16.61303        0.417
        7.51436       15.49588       18.04904        0.417
       16.16660       15.62761        8.02440       -0.834
       16.19288       16.43613        8.53610        0.417
       15.27399       15.58997        7.68080        0.417
       23.76346       22.38416       27.82782       -0.834
       23.52710       21.92709       27.02070        0.417
       24.62170       22.76639       27.64464        0.417
       15.37407        5.52146        8.95234       -0.834
       16.19729        5.34031        8.49877        0.417
       14.76452        5.76442        8.25545        0.417
       12.55781        6.89901       18.03373       -0.834
       13.40965        7.15326       18.38868        0.417
       12.51250        5.95306       18.17289        0.417
        5.52765       12.59441        6.41237       -0.834
        5.70730       13.37259        6.94000        0.417
        6.38737       12.19964        6.26651        0.417
       19.53307       13.70056        2.56633       -0.834
       20.41827       14.06039        2.51014        0.417
       19.51416       13.23964        3.40503        0.417
       14.87031       18.42643        3.34386       -0.834
       14.38485       18.18842        2.55398        0.417
       14.40419       19.18647        3.69215        0.417
        9.82892        7.67114       11.17071       -0.834
       10.05909        6.85561       10.72555        0.417
       10.29524        8.35039       10.68346        0.417
       19.20944       18.60267        2.23485       -0.834
       18.56854       18.30496        1.58922        0.417
       18.68454       19.01027        2.92375        0.417
       21.89095       28.05143       18.58537       -0.834
       22.62428       27.83715       19.16203        0.417
       21.80303       27.28774       18.01504        0.417
       26.80812        9.90367       22.33920       -0.834
       27.50535        9.25596       22.23629        0.417
       26.24187        9.54059       23.02020        0.417
       17.39662       10.00185       20.93749       -0.834
       17.02761        9.13301       20.77877        0.417
       18.31427        9.92418       20.67650        0.417
        5.01691       10.13289       13.34516       -0.834
        4.77687       11.05765       13.40369        0.417
        5.33429       10.02359       12.44875        0.417
       21.53654       13.36224       11.53274       -0.834
       22.49084       13.43599       11.52197        0.417
       21.36854       12.46220       11.81192        0.417
        6.01731       15.01311        7.95590       -0.834
        6.72722       14.85706        8.57873        0.417
        5.28034       15.29512        8.49775        0.417
       16.88872       22.29022        7.93952       -0.834
       17.83848       22.23639        7.83323        0.417
       16.56358       21.44775        7.62208        0.417
       14.21554       15.10089       10.98724       -0.834
       14.15235       14.75441       11.87729        0.417
       15.15413       15.11081       10.79965        0.417
       22.74501       13.23591       18.62969       -0.834
       21.86581       13.61292       18.66287        0.417
       23.20821       13.76403       17.97948        0.417
       12.12992       17.99241       29.25229       -0.834
       12.40448       17.76539       30.14072        0.417
       11.54170       17.28276       28.99418        0.417
       13.30641       24.36643       16.86930       -0.834
       12.45129       24.79336       16.92175        0.417
       13.68890       24.48769       17.73834        0.417
       13.24402        7.96112       27.46423       -0.834
       12.39294        8.35412       27.65779        0.417
       13.73729        8.04282       28.28046        0.417
       29.08646       21.24991       13.21871       -0.834
       29.61345       20.45110       13.23943        0.417
       28.69027       21.29868       14.08870        0.417
        9.87720       17.89721       14.73941       -0.834
        9.78727       17.54165       15.62356        0.417
       10.62095       18.49705       14.79647        0.417
       15.13219       14.11112       26.36446       -0.834
       15.77958       13.92088       25.68554        0.417
       14.28757       14.01323       25.92485        0.417
       28.52607       14.91807       17.79982       -0.834
       28.46369       14.68114       18.72513        0.417
       27.78474       15.50527       17.65195        0.417
        9.82053        9.82839       29.06549       -0.834
        9.78829       10.16352       28.16946        0.417
        9.05921        9.25222       29.13375        0.417
       17.06528        7.71029       24.29426       -0.834
       17.94949        8.00582       24.51118        0.417
       16.74797        7.29409       25.09571        0.417
       24.93156       26.71024       16.98411       -0.834
       24.34941       27.21991       16.42058        0.417
       25.74266       27.21771       17.01281        0.417
        3.11267       13.13582       20.53995       -0.834
        3.34973       13.01834       21.45986        0.417
        3.08744       12.24789       20.18334        0.417
       11.25184        9.07345        9.16418       -0.834
       11.13099       10.01119        9.01495        0.417
       12.06350        9.01326        9.66799        0.417
       20.81528       22.62758       15.24280       -0.834
       20.70304       22.99635       14.36665        0.417
       20.27757       21.83569       15.24057        0.417
        6.13243       14.75567       23.63011       -0.834
        6.49212       14.20192       24.32310        0.417
        5.54713       15.36062       24.08583        0.417
        3.20520       18.88456       22.86367       -0.834
        3.59826       18.02299       22.72427        0.417
        3.92410       19.42656       23.18873        0.417
       21.19063       23.88478        5.91929       -0.834
       22.02419       23.44848        5.74307        0.417
       21.13057       23.91085        6.87425        0.417
        9.93751        7.51847       14.99098       -0.834
        9.05372        7.16315       14.89666        0.417
       10.04438        8.09915       14.23758        0.417
        4.16386        9.22391       17.53348       -0.834
        4.25199       10.16213       17.70146        0.417
        3.23938        9.10490       17.31573        0.417
       14.47337       27.24832       12.05424       -0.834
       14.49485       26.89528       12.94369        0.417
       14.08887       26.54785       11.52723        0.417
        5.76742       20.13376       13.98417       -0.834
        6.39479       20.33646       14.67811        0.417
        6.25966       19.59377       13.36584        0.417
       25.17598        7.06872       17.85965       -0.834
       24.54204        6.52907       17.38728        0.417
       24.79449        7.94660       17.85502        0.417
       10.81607       10.34240       13.22795       -0.834
       11.38666       10.84291       13.81117        0.417
        9.93067       10.52906       13.54012        0.417
        9.97411        8.05499        6.91873       -0.834
       10.51636        8.39458        7.63068        0.417
        9.07458        8.19033        7.21665        0.417
       12.60352        4.14275       18.17830       -0.834
       11.66704        3.97534       18.28417        0.417
       13.00843        3.73359       18.94307        0.417
       18.70386        8.95888        5.86376       -0.834
       18.93590        8.42649        5.10287        0.417
       18.28484        8.34529        6.46721        0.417
        6.70361       28.40887       14.68748       -0.834
        7.64309       28.58846       14.65075        0.417
        6.63845       27.45641       14.61803        0.417
       22.43302       14.53382        6.26699       -0.834
       23.02839       15.00746        6.84789        0.417
       22.13074       15.19388        5.64316        0.417
       10.62975       19.37401       24.69891       -0.834
       10.35473       19.62697       23.81766        0.417
       10.75566       18.42647       24.64830        0.417
       13.32339        8.64263       11.53802       -0.834
       12.45175        8.56198       11.92533        0.417
       13.57421        9.55229       11.69879        0.417
       19.04630       21.29312       18.73177       -0.834
       18.27548       20.98722       19.20978        0.417
       19.69100       21.48410       19.41304        0.417
       13.61461        8.74190       20.96719       -0.834
       13.30386        7.96560       21.43306        0.417
       14.22881        8.40156       20.31668        0.417
       25.37103        8.79727       24.68580       -0.834
       24.81740        8.04299       24.48380        0.417
       24.89785        9.54621       24.32327        0.417
       17.39176       20.02917       29.74959       -0.834
       17.20365       19.09086       29.72912        0.417
       17.94139       20.18058       28.98068        0.417
       19.34928       22.87981       22.51863       -0.834
       19.57140       22.97243       21.59218        0.417
       20.05509       23.33179       22.98099        0.417
       14.72718       26.20143       22.86978       -0.834
       14.48940       25.61632       22.15052        0.417
       14.08891       26.00904       23.55667        0.417
       16.36324       18.84046       23.14284       -0.834
       15.84889       19.63855       23.02141        0.417
       15.89280       18.35225       23.81854        0.417
       21.17137       20.84057       11.14856       -0.834
       21.53343       20.65490       10.28215        0.417
       21.15414       21.79614       11.20171        0.417
        5.47343        6.32885       19.29426       -0.834
        5.78208        6.03561       20.15157        0.417
        5.59867        7.27775       19.30579        0.417
       23.71606        9.25482       13.87464       -0.834
       24.61036        9.27761       13.53414        0.417
       23.70740        9.91202       14.57052        0.417
       19.79373        9.02594       23.65486       -0.834
       20.43937        8.32016       23.61950        0.417
       19.87948        9.38562       24.53776        0.417
       24.35372       15.61769       11.81376       -0.834
       24.91970       14.94179       11.44084        0.417
       24.62397       15.67832       12.73001        0.417
       22.75751       21.26413       21.12514       -0.834
       23.18674       20.79064       21.83774        0.417
       23.46313       21.75489       20.70384        0.417
        3.00431       13.52106       13.63760       -0.834
        2.76425       12.59817       13.72048        0.417
        3.13698       13.81636       14.53840        0.417
        3.19303       20.03756       17.50842       -0.834
        2.52032       19.90844       18.17702        0.417
        2.70413       20.25736       16.71539        0.417
       12.17540       27.90364       14.70329       -0.834
       12.92041       28.50442       14.72000        0.417
       12.48416       27.15249       14.19667        0.417
       23.29143       20.73610        4.29862       -0.834
       22.53160       20.61663        3.72886        0.417
       23.27900       19.97435        4.87811        0.417
       18.63428       17.46438       22.52167       -0.834
       19.35981       18.07754       22.63941        0.417
       17.84918       18.01014       22.56632        0.417
       18.37087       28.89177       11.54357       -0.834
       19.03798       29.36180       11.04330        0.417
       18.58313       29.07573       12.45863        0.417
       22.00741        4.61925       22.57446       -0.834
       22.58645        3.94670       22.21583        0.417
       21.97551        4.43297       23.51282        0.417
       16.26400       17.76537        5.77870       -0.834
       15.47955       17.50313        5.29692        0.417
       16.74106       18.33058        5.17109        0.417
       23.67879       22.85659        6.25208       -0.834
       24.48090       23.31986        6.01077        0.417
       23.84380       21.94655        6.00544        0.417
       27.54104       21.07703       11.04908       -0.834
       27.13368       20.22262       11.19149        0.417
       28.39034       21.01379       11.48603        0.417
       14.39931       11.13612       11.00440       -0.834
       14.29767       11.83406       11.65153        0.417
       15.20135       11.36103       10.53282        0.417
       18.61932       20.04220       10.99673       -0.834
       18.13354       20.72713       10.53725        0.417
       19.52267       20.35830       11.01281        0.417
       28.70230       23.36165       17.06495       -0.834
       28.11681       22.61091       17.16404        0.417
       29.58065       22.99690       17.17305        0.417
       12.80108       10.14457       23.02180       -0.834
       13.17006        9.86720       22.18326        0.417
       12.27645        9.39829       23.31175        0.417
       17.03977       24.26235       22.09629       -0.834
       17.31891       23.35797       22.23912        0.417
       16.09556       24.24966       22.25296        0.417
       19.14552       25.47656        7.54599       -0.834
       18.34769       25.95599        7.76927        0.417
       18.86033       24.81765        6.91295        0.417
       17.81591       23.46191       10.56534       -0.834
       17.41055       23.15449        9.75453        0.417
       17.70292       24.41220       10.54484        0.417
        4.94636        7.90985       15.23058       -0.834
        4.87469        8.05860       16.17343        0.417
        4.82185        8.77525       14.84095        0.417
       15.31105       22.00657        2.29586       -0.834
       15.22272       22.84111        2.75626        0.417
       14.60865       21.46140        2.65034        0.417
       13.74539       15.70024        6.36825       -0.834
       13.87320       15.50935        5.43903        0.417
       13.55088       14.85034        6.76331        0.417
       27.25062       21.11836       26.24679       -0.834
       27.78100       21.87029       26.51048        0.417
       26.44455       21.50240       25.90184        0.417
       18.38055        5.18479       19.22500       -0.834
       18.83522        5.39884       18.41033        0.417
       17.71425        4.54756       18.96768        0.417
        7.56139       18.14809        6.27236       -0.834
        7.03343       18.73320        5.72910        0.417
        7.26649       17.26894        6.03493        0.417
       14.20489       19.07545       27.59789       -0.834
       13.58086       18.66759       28.19828        0.417
       13.66666       19.62835       27.03145        0.417
       13.51103       21.38750        9.81032       -0.834
       14.03476       20.60694        9.99106        0.417
       13.23089       21.69356       10.67293        0.417
        8.48506       13.69931       14.33615       -0.834
        8.91021       14.48117       13.98378        0.417
        9.18663       13.22518       14.78250        0.417
       15.21613        6.50211       11.70561       -0.834
       14.77270        7.34996       11.73321        0.417
       15.20729        6.25667       10.78045        0.417
       21.08458       20.45423        2.84317       -0.834
       20.81523       19.83210        2.16742        0.417
       20.26412       20.82188        3.17166        0.417
        8.15690       25.94460       11.80122       -0.834
        8.39653       26.86293       11.67680        0.417
        8.68133       25.47021       11.15611        0.417
       10.99933       22.26386       19.04473       -0.834
       11.24328       23.17906       18.90639        0.417
       11.73056       21.89258       19.53838        0.417
        6.26026       13.23430       15.87095       -0.834
        5.73447       14.03331       15.83388        0.417
        6.95382       13.37327       15.22605        0.417
        8.86307       11.53286       25.93489       -0.834
        9.18403       11.49564       25.03388        0.417
        7.91544       11.63624       25.84800        0.417
       10.60616       29.87158       21.45425       -0.834
       10.65884       30.42957       22.23020        0.417
       11.36525       29.29255       21.52306        0.417
        9.83469       13.04545        3.52138       -0.834
        9.77049       12.70931        2.62745        0.417
       10.11237       13.95544        3.41623        0.417
        9.33715       28.59680       15.24032       -0.834
        9.51509       29.46892       15.59243        0.417
        9.91961       28.51966       14.48466        0.417
       23.76406       27.98766       23.63025       -0.834
       23.08435       27.44853       23.22581        0.417
       23.34197       28.36802       24.40057        0.417
       21.74138        9.94499        9.48841       -0.834
       21.86229        9.76349       10.42044        0.417
       21.80195       10.89779        9.41963        0.417
        4.06251       24.39481       13.92360       -0.834
        3.81441       23.76005       14.59573        0.417
        4.97965       24.59564       14.11004        0.417
       15.42069       21.47264       22.99747       -0.834
       14.54324       21.15140       23.20513        0.417
       15.43461       22.36811       23.33537        0.417
       23.18860       15.69203       25.03222       -0.834
       23.70026       14.89260       25.15606        0.417
       23.36975       15.95556       24.13002        0.417
       10.46814       16.24436        7.23865       -0.834
       10.19320       15.33655        7.11012        0.417
       10.80864       16.51500        6.38598        0.417
       29.74694       17.09580       21.54271       -0.834
       29.93338       17.60078       22.33421        0.417
       30.08100       17.63783       20.82798        0.417
       27.81034       17.87914       19.49687       -0.834
       28.27588       17.44558       20.21208        0.417
       28.30297       18.68544       19.34380        0.417
       14.65723       17.19602       24.59735       -0.834
       14.84155       16.26180       24.49989        0.417
       13.78461       17.30905       24.22053        0.417
       27.05122       25.10890       13.31168       -0.834
       27.51254       25.15928       14.14886        0.417
       26.84973       24.17933       13.20425        0.417
        5.60624       10.47568       10.71828       -0.834
        4.93295       11.13342       10.54425        0.417
        6.39753       10.82884       10.31163        0.417
       14.49518       29.14226       15.11526       -0.834
       15.19155       28.48703       15.15973        0.417
       14.95598       29.97658       15.02690        0.417
       10.19714       23.74702        5.56860       -0.834
        9.66062       23.85160        6.35438        0.417
        9.82984       22.98108        5.12740        0.417
       21.75322       20.17164        8.55938       -0.834
       22.70354       20.06985        8.61201        0.417
       21.40467       19.43035        9.05461        0.417
        1.54932       18.02259       15.04813       -0.834
        2.49452       17.93139       14.92771        0.417
        1.17188       17.72058       14.22195        0.417
        9.85906       14.29504       24.03868       -0.834
        9.25978       13.57736       23.83367        0.417
       10.29538       14.48785       23.20881        0.417
        6.32594       11.71784       25.00034       -0.834
        5.49017       11.52289       25.42428        0.417
        6.51305       10.94266       24.47089        0.417
       11.02565       27.71649       19.10799       -0.834
       11.52778       27.55432       18.30937        0.417
       11.68702       27.91201       19.77176        0.417
       19.42325       21.84138        7.66499       -0.834
       20.03251       21.46744        8.30154        0.417
       19.51565       21.28713        6.89007        0.417
       22.18020       17.65603       30.04723       -0.834
       21.84086       18.46665       29.66778        0.417
       22.18563       17.03427       29.31948        0.417
       29.78719       18.95273       23.71102       -0.834
       29.10674       18.46650       24.17665        0.417
       30.07005       19.62401       24.33199        0.417
       15.74378       11.80857       20.27348       -0.834
       16.22703       11.10678       20.70960        0.417
       15.43195       11.41480       19.45865        0.417
       16.34814       28.21647       21.92112       -0.834
       16.84503       27.77235       21.23404        0.417
       15.81278       27.52703       22.31393        0.417
        9.93073       13.47139       27.73752       -0.834
        9.58170       12.84173       27.10670        0.417
       10.87049       13.29107       27.76170        0.417
        7.79871       20.46884       26.43229       -0.834
        8.58237       20.46088       25.88271        0.417
        7.26716       21.18366       26.08197        0.417
       16.53009       18.22512       26.45791       -0.834
       15.88865       18.36396       27.15469        0.417
       16.10791       17.60531       25.86307        0.417
       11.16604       16.75336       24.57954       -0.834
       11.67311       16.35934       25.28937        0.417
       10.37744       16.21412       24.51992        0.417
       11.64227       14.57961       22.03415       -0.834
       12.12758       14.83042       22.82016        0.417
       12.06319       13.77192       21.73973        0.417
        8.18036       12.66886       18.33994       -0.834