%Nproc=32
%Mem=120Gb
%chk=temp.chk
#p cam-b3lyp/6-31+G(d,p) nosymm charge Freq 

Calculation for S0 with freq for abs spect

0  1
 C         16.62831       15.35638       17.28417
 C         15.98921       17.66270       17.30040
 C         16.63198       17.98938       16.17268
 C         17.29007       16.84737       15.44132
 N         17.19644       15.66546       16.06161
 H         15.36110       18.36304       17.76523
 H         16.55717       18.93811       15.70632
 O         17.80982       16.96737       14.36050
 O         16.64747       14.23281       17.75570
 N         15.99405       16.37863       17.87542
 H         15.77047       16.10973       18.81042
 H         17.71447       14.89827       15.56583
 O         17.28563       16.04309       20.58041
 H         17.20838       16.62427       21.33705
 H         17.94727       16.45716       20.02632
 O         12.06198       15.91246       15.51810
 H         11.27126       15.37865       15.44039
 H         12.18216       16.02755       16.46073
 O         15.55021       15.87419       12.94649
 H         15.88772       15.00449       13.16082
 H         16.28090       16.46601       13.12556
 O         18.61525       12.43638       18.56432
 H         18.60701       12.25826       17.62387
 H         18.04144       13.19521       18.66988
 O         14.75944       18.92150       13.56806
 H         15.39750       18.43645       14.09135
 H         14.13251       18.25848       13.27894
 O         12.17954       16.68992       18.56155
 H         12.91343       16.59487       19.16868
 H         11.52961       17.19688       19.04818
 O         20.79443       18.00705       15.33606
 H         20.34118       17.26573       15.73760
 H         21.12452       18.51612       16.07641
 O         14.13720       16.56223       20.30892
 H         14.33434       15.71826       20.71521
 H         14.26031       17.20114       21.01098
 O         17.71660       20.05732       19.79376
 H         16.76093       20.02806       19.74829
 H         18.00239       19.25629       19.35454
 O         16.75727       20.30267       12.53434
 H         16.06855       19.69099       12.79464
 H         16.96423       20.06101       11.63157
 O         16.17943       21.44729       16.56227
 H         15.30415       21.23347       16.23916
 H         16.02390       21.95078       17.36135
 O         14.92036       12.28274       18.43030
 H         15.66044       12.87317       18.57139
 H         14.14762       12.83959       18.52528
 O         14.99902       20.41811       19.47001
 H         14.54401       20.38021       20.31130
 H         14.29786       20.44241       18.81884
 O         19.28465       16.97808       18.98931
 H         19.83169       16.62016       19.68851
 H         19.65775       16.61819       18.18463
 O         20.27855       15.76286       16.77987
 H         21.12538       15.39648       17.03458
 H         19.72139       14.99882       16.63138
 O         12.75812       13.91790       18.35491
 H         12.68293       14.84312       18.58843
 H         12.08158       13.78206       17.69153
 O         19.84262       18.54573       13.00125
 H         20.27139       18.39073       13.84289
 H         19.00097       18.09569       13.07421
 O         12.93188       16.75557       13.04800
 H         12.76222       16.57371       13.97233
 H         13.76156       16.31467       12.86502
 O         15.41340       14.19443       20.97773
 H         16.16968       14.74163       20.76595
 H         15.78942       13.34672       21.21508
 O         16.78091       13.51086       13.75636
 H         16.38874       12.81933       14.28949
 H         17.43219       13.05963       13.21928
 O         19.34161       13.55282       15.40278
 H         20.05828       13.73616       14.79531
 H         18.87630       12.81465       15.00920
 
       28.77525       11.60703       23.14866       -0.834
       28.28466       11.10120       23.79649        0.417
       28.63518       12.51977       23.40068        0.417
       22.77526       15.29099        6.26394       -0.834
       22.03540       14.68398        6.28329        0.417
       23.10598       15.29495        7.16218        0.417
       22.44123       10.85951       10.05663       -0.834
       21.97362       10.15531       10.50571        0.417
       22.76834       11.41815       10.76172        0.417
       10.50257       23.02990       26.99368       -0.834
       11.06050       23.17130       27.75851        0.417
       11.08193       23.17021       26.24476        0.417
       13.05572       22.88144       24.86551       -0.834
       13.88152       23.30006       24.62252        0.417
       13.16698       22.64820       25.78717        0.417
       22.71411        2.66044       17.50839       -0.834
       22.77917        3.60715       17.63380        0.417
       21.81388        2.44712       17.75400        0.417
       21.70428       22.80524       27.93276       -0.834
       22.21168       22.03689       28.19433        0.417
       22.31639       23.53650       28.01518        0.417
       25.86838        8.02479       21.49351       -0.834
       25.98669        7.17345       21.91477        0.417
       26.02832        8.66152       22.19009        0.417
        5.65525       26.14760       17.93352       -0.834
        4.87848       26.64607       18.18729        0.417
        5.32719       25.48512       17.32547        0.417
        8.83528       24.38397       14.39353       -0.834
        7.89869       24.57587       14.44037        0.417
        8.88420       23.42807       14.38388        0.417
        5.27943       16.77486        8.57941       -0.834
        5.26112       17.62843        8.14659        0.417
        5.23043       16.14158        7.86332        0.417
       29.23313        8.92351       13.58870       -0.834
       28.59376        8.43469       14.10687        0.417
       29.71248        8.25201       13.10337        0.417
       23.75329       15.56907       22.08727       -0.834
       24.25712       16.03602       22.75386        0.417
       23.05106       15.13864       22.57494        0.417
       13.82500       22.92766       28.03413       -0.834
       14.60907       23.18835       28.51745        0.417
       13.13738       22.88270       28.69850        0.417
       11.39418       27.84327       24.53853       -0.834
       10.82207       27.34883       25.12544        0.417
       11.22244       27.47689       23.67107        0.417
       23.71071       11.40221       21.06886       -0.834
       23.92243       11.65237       21.96821        0.417
       23.08494       10.68373       21.16060        0.417
       22.18588       13.49555       23.15874       -0.834
       21.81979       13.41183       24.03918        0.417
       21.48483       13.19944       22.57815        0.417
       19.03813       13.36666        7.19321       -0.834
       19.02939       14.19951        6.72140        0.417
       18.13094       13.06301        7.16093        0.417
        9.06050        7.69680        9.07507       -0.834
        8.70672        6.80744        9.08483        0.417
        9.99814        7.58382        9.23097        0.417
       11.17001       23.98488       23.19394       -0.834
       11.84252       23.72429       23.82326        0.417
       11.48829       23.65679       22.35294        0.417
       11.91881       12.31432       11.80545       -0.834
       12.49244       12.31333       11.03918        0.417
       11.17084       12.85165       11.54461        0.417
       23.62299        6.87477       23.00565       -0.834
       22.78893        7.20713       23.33750        0.417
       23.65995        7.18108       22.09954        0.417
        9.49728       17.91761        5.01269       -0.834
       10.35954       17.92548        4.59714        0.417
        9.04767       18.67942        4.64698        0.417
       27.24390       17.46833       18.24436       -0.834
       27.83328       17.15518       17.55821        0.417
       27.80978       17.95655       18.84240        0.417
       24.05762       12.49261        6.44161       -0.834
       23.20126       12.89364        6.29308        0.417
       24.32891       12.17951        5.57871        0.417
        9.06472        7.34066       17.04536       -0.834
        9.03199        6.66481       16.36831        0.417
        9.97336        7.33505       17.34632        0.417
        9.15951       17.49789       19.57232       -0.834
        9.10909       17.21881       18.65810        0.417
        8.55110       18.23442       19.63231        0.417
       20.62239       31.39394       18.54302       -0.834
       20.92387       30.70308       19.13299        0.417
       21.25957       31.39451       17.82871        0.417
        5.76073       15.09292        6.15557       -0.834
        6.49764       15.62442        5.85440        0.417
        5.23442       14.94520        5.36981        0.417
       10.01211       13.68119       10.52464       -0.834
        9.48712       12.93765       10.22822        0.417
        9.96045       14.31269        9.80717        0.417
       19.13235       28.37261       20.97224       -0.834
       18.70513       28.09314       21.78194        0.417
       18.49184       28.94324       20.54755        0.417
       23.74558       20.06468       20.62244       -0.834
       23.58615       19.22764       20.18634        0.417
       24.67329       20.24286       20.46807        0.417
       14.29301       11.67332       28.98206       -0.834
       14.14410       11.04899       29.69218        0.417
       13.46140       11.70130       28.50880        0.417
       25.10157       17.59892       23.85338       -0.834
       24.46225       18.28779       23.67182        0.417
       25.92561       17.93811       23.50390        0.417
       12.27465       15.34646        7.48124       -0.834
       12.81974       15.53465        8.24524        0.417
       11.39629       15.21735        7.83905        0.417
       25.40443        7.94046        7.77153       -0.834
       24.78173        8.58980        8.09839        0.417
       24.85685        7.23439        7.42822        0.417
       14.26711       17.65303       27.42068       -0.834
       14.79536       18.44662       27.33472        0.417
       14.77453       17.08903       28.00434        0.417
       15.37260       13.16109       11.02889       -0.834
       15.06977       13.77715       10.36175        0.417
       15.48844       13.69584       11.81433        0.417
       16.39786       15.91306        2.78775       -0.834
       16.09149       16.81971        2.80676        0.417
       16.62977       15.75726        1.87223        0.417
       18.12312        4.73984       24.92864       -0.834
       18.33568        4.02856       25.53290        0.417
       18.24644        5.53719       25.44366        0.417
       12.62782        8.09686       26.26985       -0.834
       13.48360        8.51806       26.35015        0.417
       12.82801        7.17109       26.13160        0.417
       16.07896       25.92743       28.98940       -0.834
       16.09567       25.13849       29.53119        0.417
       15.47141       25.71846       28.27986        0.417
       17.12566       24.01463       20.62453       -0.834
       17.49813       24.57396       21.30618        0.417
       17.84747       23.44352       20.36174        0.417
        8.10433        9.31372        6.59071       -0.834
        7.67433        8.54803        6.20985        0.417
        8.24422        9.07888        7.50805        0.417
        6.97146        5.93845       14.13714       -0.834
        6.99547        5.61881       13.23520        0.417
        7.85424        5.77992       14.47151        0.417
       24.70170       17.73018       26.56087       -0.834
       24.76474       17.74159       25.60581        0.417
       23.97356       17.13715       26.74624        0.417
       16.14862       14.72965        8.36227       -0.834
       15.62673       15.51329        8.18977        0.417
       15.67359       14.02366        7.92391        0.417
        8.49559       11.36476       26.73118       -0.834
        8.02279       11.72795       27.48004        0.417
        8.75132       10.48615       27.01201        0.417
       13.42021        8.08517       17.14345       -0.834
       14.08113        8.56281       17.64480        0.417
       13.87283        7.81756       16.34360        0.417
       20.82333        5.35265       24.57258       -0.834
       19.87442        5.25359       24.49519        0.417
       20.99298        6.25581       24.30473        0.417
       19.51592       28.59989        6.94188       -0.834
       19.27146       29.48113        7.22454        0.417
       19.32032       28.04321        7.69559        0.417
       26.01235       19.70615       14.79290       -0.834
       26.92372       19.73028       15.08452        0.417
       25.73810       20.62320       14.78639        0.417
       29.42286       24.94713       19.69860       -0.834
       29.68187       25.60180       19.05010        0.417
       28.50772       25.15018       19.89230        0.417
       15.54605       14.66493        5.04678       -0.834
       15.69461       13.77137        4.73740        0.417
       15.68394       15.21252        4.27389        0.417
       14.62491        7.46200       21.39610       -0.834
       14.19970        8.31941       21.37936        0.417
       13.92115        6.84924       21.60937        0.417
       16.08072       15.88868       28.63120       -0.834
       16.53722       15.07954       28.40069        0.417
       16.70388       16.58410       28.42076        0.417
       19.44229       28.61299       14.38125       -0.834
       19.16978       27.70626       14.24047        0.417
       18.63829       29.06948       14.62912        0.417
       23.15460       26.26758       24.92268       -0.834
       23.54977       26.46495       25.77186        0.417
       23.13458       25.31138       24.88373        0.417
       16.81933       23.48833        9.86503       -0.834
       15.99869       23.19619       10.26180        0.417
       16.65004       23.47091        8.92308        0.417
       15.85385       27.71925       10.26884       -0.834
       15.91547       27.90961        9.33279        0.417
       16.75422       27.53418       10.53589        0.417
       10.86166        9.81496       25.06702       -0.834
       10.95235       10.59759       25.61063        0.417
       11.50015        9.19847       25.42548        0.417
       19.71984        9.10752       26.87632       -0.834
       20.61017        9.17207       26.53081        0.417
       19.32302        9.95549       26.67703        0.417
        5.93153       24.63297       14.18545       -0.834
        5.27537       25.15562       14.64644        0.417
        5.56421       24.50354       13.31106        0.417
       17.11344       27.79846       26.38047       -0.834
       16.53187       27.07662       26.61915        0.417
       17.94761       27.37654       26.17462        0.417
       27.01943       17.03019       27.71552       -0.834
       27.70502       17.64377       27.45147        0.417
       26.24129       17.32047       27.23963        0.417
       10.57725       24.94367       11.61628       -0.834
       10.67293       24.87653       10.66624        0.417
        9.67640       24.66866       11.78679        0.417
       20.01004       15.80428       28.10223       -0.834
       19.40532       15.37736       27.49537        0.417
       19.84503       15.37952       28.94400        0.417
       11.59657       15.50364        3.12352       -0.834
       11.92250       15.42269        2.22716        0.417
       11.48462       16.44526        3.25405        0.417
       10.48435       17.07300       22.10194       -0.834
       11.31321       16.68457       21.82204        0.417
       10.13968       17.49574       21.31536        0.417
       21.78356       26.08542       15.76605       -0.834
       21.07363       26.38650       16.33313        0.417
       21.35548       25.87717       14.93562        0.417
       28.49293       21.35936       15.92280       -0.834
       29.24657       21.75284       16.36261        0.417
       28.61518       21.57484       14.99822        0.417
       27.19842       13.30716        5.92739       -0.834
       26.81518       14.11371        6.27226        0.417
       27.76287       13.59702        5.21072        0.417
       20.64771       30.57420       12.56263       -0.834
       20.07499       30.12268       13.18259        0.417
       21.53259       30.40375       12.88541        0.417
       14.42722        9.03078        8.31700       -0.834
       14.37001        9.40093        9.19788        0.417
       15.34782        8.78806        8.21799        0.417
       14.94325       22.34639       11.51903       -0.834
       15.59932       22.10097       12.17139        0.417
       14.17805       22.60377       12.03328        0.417
        8.53533       17.37515       29.30947       -0.834
        8.57442       17.05448       30.21051        0.417
        9.42294       17.25314       28.97260        0.417
       15.23133        9.44598       26.54176       -0.834
       15.89609        9.04131       27.09905        0.417
       15.60524        9.41517       25.66115        0.417
        3.08339       15.80494       23.40577       -0.834
        3.60326       15.66058       22.61512        0.417
        2.54349       15.01851       23.48490        0.417
       10.35685       19.62821       28.47914       -0.834
       10.45513       19.30925       27.58201        0.417
       10.83782       18.99565       29.01278        0.417
       24.56214       16.34039       18.25841       -0.834
       24.05615       16.85976       18.88327        0.417
       25.46364       16.64222       18.36991        0.417
       12.53454       21.78793        7.26286       -0.834
       11.68386       21.40149        7.47076        0.417
       12.32997       22.67724        6.97387        0.417
       14.58417        7.99167       14.75118       -0.834
       14.10968        8.49677       14.09090        0.417
       15.49580        8.26707       14.65465        0.417
       15.87263       24.56316       24.81326       -0.834
       16.71246       24.17590       25.06015        0.417
       15.48509       24.84433       25.64211        0.417
       20.33820       10.35821       22.83437       -0.834
       19.74424        9.62621       22.66819        0.417
       20.30275       10.88243       22.03426        0.417
       30.88484       19.77338       15.46439       -0.834
       30.21451       20.14621       14.89178        0.417
       31.36017       19.15670       14.90761        0.417
       11.41878       16.87349       29.03612       -0.834
       12.27814       16.59579       28.71893        0.417
       11.33711       16.46411       29.89749        0.417
       15.18467       10.56759       10.78639       -0.834
       16.08369       10.28597       10.95579        0.417
       15.17659       11.49645       11.01745        0.417
        6.32346        9.29864       15.37694       -0.834
        6.92023        9.67602       16.02322        0.417
        6.55215        9.73435       14.55591        0.417
       20.16505        6.02585       16.30423       -0.834
       19.86133        6.90030       16.54781        0.417
       21.07737        5.99967       16.59269        0.417
        7.01272       10.71132       17.60982       -0.834
        7.43798       11.35135       18.18056        0.417
        6.11333       10.66128       17.93357        0.417
       18.23760       25.35383       22.59537       -0.834
       19.09943       25.76940       22.56744        0.417
       17.63531       26.06485       22.81431        0.417
       22.35279       13.69773       14.41020       -0.834
       22.52947       13.91564       15.32537        0.417
       22.51647       14.51165       13.93379        0.417
       13.55576       28.71424       19.09852       -0.834
       14.39024       28.54075       19.53428        0.417
       12.95603       28.93990       19.80959        0.417
       14.80261       31.25668       12.50910       -0.834
       15.34418       32.04086       12.59849        0.417
       14.85635       30.82919       13.36385        0.417
        4.69599       20.91544       18.71287       -0.834
        4.03501       21.60778       18.71093        0.417
        4.19412       20.10429       18.63294        0.417
       24.71489       26.06945       10.00216       -0.834
       25.11613       26.91676        9.80898        0.417
       25.40988       25.43192        9.83855        0.417
       28.44735       19.13696       20.38329       -0.834
       28.98152       19.92973       20.33420        0.417
       28.93848       18.55200       20.96021        0.417
       15.23860       25.32807       11.83863       -0.834
       16.02515       24.94633       11.44894        0.417
       15.20784       26.21991       11.49235        0.417
       27.16311        7.66086       14.75452       -0.834
       27.16940        6.74233       15.02378        0.417
       27.27010        8.15070       15.56990        0.417
       19.27002       13.98515        3.29088       -0.834
       18.63744       13.26986        3.22368        0.417
       18.79455       14.68477        3.73887        0.417
       27.54390       19.77135       23.69076       -0.834
       28.43061       19.80805       24.04941        0.417
       27.06234       20.44420       24.17201        0.417
       25.14700       20.72860        7.61162       -0.834
       24.54250       20.09756        7.22100        0.417
       25.53537       20.26236        8.35191        0.417
       18.79585       12.03038       12.64378       -0.834
       18.76839       12.26710       11.71672        0.417
       19.39911       11.28830       12.68421        0.417
        6.65419       19.03975       14.12511       -0.834
        6.13217       18.48301       14.70284        0.417
        7.34185       19.39317       14.68943        0.417
       24.85129       22.15572       15.33729       -0.834
       25.50751       22.81731       15.11840        0.417
       25.09590       21.85551       16.21266        0.417
       10.14897       12.79599       25.25638       -0.834
       10.06941       12.25601       24.47004        0.417
        9.78220       12.25598       25.95645        0.417
       19.47620        7.38044        6.13646       -0.834
       19.62537        6.55262        5.67965        0.417
       20.23914        7.48131        6.70566        0.417
       27.15886       10.58211       25.60156       -0.834
       27.12337       11.51171       25.82698        0.417
       27.41775       10.14780       26.41433        0.417
       12.67796       26.29796       22.17631       -0.834
       12.17878       26.06324       21.39402        0.417
       13.27770       25.56358       22.30760        0.417
       23.17342       25.60980        5.72420       -0.834
       22.94344       25.00442        6.42908        0.417
       22.85510       25.18361        4.92842        0.417
        5.01756       23.85330       16.82168       -0.834
        5.57303       23.10010       17.02261        0.417
        4.20311       23.47061       16.49542        0.417
       12.95395       11.80706        9.31907       -0.834
       13.53681       11.04865        9.35538        0.417
       13.32857       12.36523        8.63764        0.417
       14.60696        6.55007        6.32838       -0.834
       13.73305        6.61857        6.71299        0.417
       15.19973        6.53909        7.07987        0.417
       18.08952       22.62154       14.51138       -0.834
       17.99417       22.17484       13.67020        0.417
       17.50396       22.14806       15.10229        0.417
       28.57828       11.29171        8.58046       -0.834
       27.66979       11.57561        8.68192        0.417
       28.72769       10.69778        9.31608        0.417
        9.69358       19.29869       23.76047       -0.834
       10.25716       18.66566       23.31564        0.417
        8.82746       18.89119       23.75944        0.417
       12.56858       17.25267        5.38684       -0.834
       12.13730       16.63567        5.97807        0.417
       13.26728       17.64108        5.91333        0.417
       13.16185        9.59239       12.78957       -0.834
       13.94415        9.80373       12.28008        0.417
       12.72965       10.43540       12.92652        0.417
        4.93784       13.46003       21.34730       -0.834
        4.34817       12.94713       21.89998        0.417
        5.63533       13.74319       21.93857        0.417
       16.93608        8.59010       24.32943       -0.834
       17.12010        7.90727       24.97450        0.417
       16.94913        8.13474       23.48759        0.417
        9.08691        8.65888       22.96245       -0.834
        9.74668        8.95624       23.58895        0.417
        9.54118        8.65356       22.11992        0.417
       17.53142        8.74894       28.75628       -0.834
       17.81345        8.47262       29.62826        0.417
       18.34025        8.79790       28.24675        0.417
        7.67728       24.58780       10.91608       -0.834
        6.89531       24.42751       11.44436        0.417
        7.43464       25.31483       10.34268        0.417
       20.38342        4.55068        7.47650       -0.834
       21.14979        5.08587        7.27041        0.417
       20.25644        4.66592        8.41822        0.417
       21.31518       20.16528       11.52422       -0.834
       20.74246       19.72085       12.14929        0.417
       22.14606       20.26498       11.98889        0.417
       20.86358       22.95619       12.35167       -0.834
       20.65318       22.03137       12.48080        0.417
       21.76401       23.04341       12.66449        0.417
       19.27423       24.35943       15.98578       -0.834
       18.91362       23.72114       15.37034        0.417
       19.85069       23.84703       16.55268        0.417
       19.20346        8.32933       18.41782       -0.834
       19.41273        8.52668       17.50487        0.417
       18.83738        9.14418       18.76167        0.417
       26.17915       19.34209       12.15416       -0.834
       25.71928       20.12543       11.85228        0.417
       26.10152       19.37076       13.10777        0.417
       23.95052       23.51916       12.50653       -0.834
       23.89632       24.47437       12.47715        0.417
       24.44930       23.33143       13.30165        0.417
       11.95197       19.01724        8.68766       -0.834
       12.70863       19.60186        8.73146        0.417
       11.80281       18.74944        9.59445        0.417
        5.54953       17.10272       15.60495       -0.834
        5.25215       16.21718       15.39609        0.417
        5.38098       17.19763       16.54240        0.417
       22.77307       14.24655       17.19619       -0.834
       23.33913       13.54960       17.52796        0.417
       23.22197       15.05634       17.43901        0.417
       26.17561       20.61435       20.25185       -0.834
       27.00184       20.18562       20.47494        0.417
       26.31878       21.53663       20.46434        0.417
       19.28625       16.09324       31.72828       -0.834
       18.54825       16.58049       32.09458        0.417
       18.88125       15.40949       31.19471        0.417
       18.46413       26.19553        8.60048       -0.834
       17.89486       25.44493        8.43089        0.417
       19.22102       25.82496        9.05440        0.417
       23.28608        9.75090        7.72412       -0.834
       22.97146       10.16249        8.52901        0.417
       23.67748       10.46785        7.22509        0.417
       14.75599       20.63399       30.03852       -0.834
       14.42752       21.12870       30.78926        0.417
       14.44770       19.74000       30.18675        0.417
       22.44534       17.79099        4.92421       -0.834
       22.62961       17.26159        5.70010        0.417
       21.84467       17.25576        4.40560        0.417
        1.88855       13.69729       19.02739       -0.834
        1.30507       14.42146       18.80074        0.417
        2.35031       13.49728       18.21314        0.417
       18.05789       26.30661       14.50352       -0.834
       17.18672       26.22420       14.89147        0.417
       18.60246       25.70021       15.00547        0.417
        8.56940       15.41614       26.95774       -0.834
        8.39633       14.51759       27.23861        0.417
        8.02699       15.95599       27.53270        0.417
       10.12877       17.75790       13.99888       -0.834
       10.70849       17.06512       14.31543        0.417
       10.55649       18.57064       14.26859        0.417
       17.84515       23.73274       26.49887       -0.834
       17.83496       23.58243       27.44414        0.417
       18.76097       23.92348       26.29606        0.417
        8.50871       23.94986        6.30617       -0.834
        7.56845       24.08407        6.18729        0.417
        8.66670       24.16036        7.22648        0.417
        6.49632       14.29800       23.48336       -0.834
        6.48461       13.55821       24.09066        0.417
        7.40581       14.59644       23.48620        0.417
       10.50260        8.93718       13.47699       -0.834
        9.62416        8.85050       13.10677        0.417
       11.02836        9.30118       12.76474        0.417
       11.27848        9.64165       16.16751       -0.834