%Nproc=32
%Mem=120Gb
%chk=temp.chk
#p cam-b3lyp/6-31+G(d,p) nosymm charge Freq 

Calculation for S0 with freq for abs spect

0  1
 C         16.04886       16.30853       15.32019
 C         17.47065       17.47662       16.91708
 C         16.80219       17.04537       17.99912
 C         15.80478       16.05721       17.82961
 N         15.53357       15.69329       16.46436
 H         18.32517       18.18027       17.00189
 H         17.11299       17.37023       18.97707
 O         15.28960       15.45520       18.75558
 O         15.72666       15.97229       14.18583
 N         17.07774       17.17280       15.61735
 H         17.54175       17.67250       14.86034
 H         14.83774       14.98264       16.36808
 O         17.85736       16.96799       21.51543
 H         17.36073       16.37038       22.07440
 H         18.15325       16.42387       20.78562
 O         15.04905       19.93596       18.70597
 H         15.38938       19.95112       19.60052
 H         14.79697       19.02408       18.56052
 O         20.31897       15.10945       17.75754
 H         19.78556       14.56572       17.17784
 H         20.84997       15.64218       17.16553
 O         17.62830       18.43267       13.10989
 H         17.74057       17.53577       12.79495
 H         16.75542       18.68519       12.80898
 O         12.92755       17.78232       17.57812
 H         12.74486       17.46560       16.69351
 H         13.03951       16.98730       18.09932
 O         14.89427       15.17371       11.63322
 H         14.99323       14.22472       11.70968
 H         15.13450       15.51038       12.49645
 O         14.85771       19.36331       15.42550
 H         14.59730       19.25547       16.34026
 H         15.77336       19.63908       15.46755
 O         14.77130       13.04339       16.80441
 H         15.02194       12.63553       15.97552
 H         14.65683       12.30943       17.40809
 O         14.80137       16.77860       21.04876
 H         14.69955       16.33853       20.20484
 H         15.34482       16.18378       21.56556
 O         17.51117       14.10293       12.79674
 H         17.61740       13.62095       11.97660
 H         17.70285       15.01224       12.56728
 O         18.78105       15.11601       19.77561
 H         19.41312       15.15262       19.05769
 H         18.22188       14.36818       19.56513
 O         17.05542       13.07123       18.53666
 H         16.93850       12.20226       18.15266
 H         16.20247       13.49417       18.43748
 O         15.76721       12.24343       14.34436
 H         16.11642       12.85399       13.69513
 H         16.54108       11.82156       14.71769
 O         21.15081       16.86301       15.45175
 H         21.37719       16.05174       14.99698
 H         21.03714       17.50652       14.75232
 O         17.17426       20.56920       15.59327
 H         17.70979       20.83977       14.84747
 H         17.70558       20.78279       16.36029
 O         18.35770       19.80959       18.94610
 H         18.11925       20.72970       18.83306
 H         18.09003       19.60051       19.84103
 O         14.62520       18.18275       12.81395
 H         14.66018       18.47292       13.72543
 H         14.01106       17.44857       12.81922
 O         18.95415       13.58100       15.84042
 H         18.55583       12.72442       15.99487
 H         18.30899       14.05449       15.31525
 O         20.47344       17.58124       19.52462
 H         19.83623       18.28812       19.62718
 H         20.15565       16.88619       20.10094
 O         12.52543       16.41159       15.30316
 H         11.84380       16.93116       14.87694
 H         12.43401       15.53781       14.92318
 O         12.40919       15.40170       19.09185
 H         13.31136       15.08183       19.09350
 H         11.95486       14.84166       19.72130
 
       23.16288       12.80812       16.79556       -0.834
       22.92845       13.35053       16.04253        0.417
       24.07563       13.03174       16.97753        0.417
       18.82352       10.16324        9.27742       -0.834
       19.57549        9.76904        8.83538        0.417
       18.06178        9.79275        8.83165        0.417
       20.68658       24.83417       23.55043       -0.834
       20.60265       23.89901       23.36426        0.417
       21.47905       25.10139       23.08480        0.417
       12.06676       15.80168       23.50356       -0.834
       11.16386       15.77927       23.18655        0.417
       12.43870       16.59245       23.11293        0.417
       21.90105       16.39477       11.90537       -0.834
       21.49325       15.72450       11.35705        0.417
       21.17643       16.76754       12.40756        0.417
        8.20673       17.79768       20.17373       -0.834
        7.90257       18.36667       19.46665        0.417
        7.43104       17.65249       20.71544        0.417
       14.04158       11.53751       18.97758       -0.834
       13.11102       11.37515       18.82290        0.417
       14.18603       11.26207       19.88286        0.417
        5.89370       14.33798       26.49765       -0.834
        5.39177       15.04282       26.90690        0.417
        5.23749       13.80638       26.04708        0.417
       17.06633       25.14104        3.93067       -0.834
       16.22369       25.35526        3.53031        0.417
       16.96952       24.23484        4.22332        0.417
        5.23935       15.21061       11.13286       -0.834
        4.48007       15.74255       11.37108        0.417
        5.93875       15.51907       11.70898        0.417
       13.69051       10.72125       24.58926       -0.834
       12.87243       10.92045       24.13395        0.417
       13.58664       11.11818       25.45406        0.417
        6.53122       27.44925       15.01557       -0.834
        5.94188       28.16047       14.76442        0.417
        6.32806       27.28298       15.93607        0.417
       28.22932       10.91382       19.20344       -0.834
       27.70196       10.97609       18.40705        0.417
       28.25158       11.80698       19.54700        0.417
       16.15191       12.15444        7.63760       -0.834
       15.92591       11.36532        7.14520        0.417
       15.30814       12.53758        7.87736        0.417
       23.68355        6.57547        8.87461       -0.834
       23.71016        6.14416        8.02051        0.417
       22.89025        7.11048        8.84868        0.417
       15.77875        8.52741       13.67591       -0.834
       15.72105        8.88592       12.79026        0.417
       16.71624        8.51380       13.86869        0.417
        7.80228       14.65937       17.47429       -0.834
        8.72801       14.88201       17.57269        0.417
        7.34713       15.50024       17.51921        0.417
       24.13918       15.22154       10.81028       -0.834
       23.53383       15.73840       11.34192        0.417
       23.60565       14.89956       10.08372        0.417
       17.97455       30.86468       13.95299       -0.834
       17.32376       30.72074       14.64000        0.417
       18.25929       29.98535       13.70412        0.417
       19.64141       20.10548        8.43931       -0.834
       18.72703       20.35285        8.30165        0.417
       20.05479       20.89688        8.78432        0.417
       13.90577       14.20953        6.40227       -0.834
       14.43902       14.06149        5.62126        0.417
       13.33739       14.94359        6.16917        0.417
        3.02786       18.28462       15.64851       -0.834
        3.41235       19.12404       15.90101        0.417
        2.75551       17.88695       16.47550        0.417
       30.30048       15.99507       22.90394       -0.834
       29.73248       16.76515       22.87932        0.417
       29.76114       15.31169       23.30185        0.417
       15.11909       26.35584       23.01200       -0.834
       14.37498       26.45028       23.60665        0.417
       15.78746       26.94060       23.36918        0.417
       23.27572       11.46474        6.33767       -0.834
       23.69389       11.42517        7.19778        0.417
       23.32414       12.38795        6.08952        0.417
       22.08216       18.07477        3.93808       -0.834
       22.44289       17.60843        4.69216        0.417
       22.28072       17.51145        3.19009        0.417
       10.66475       13.83056        7.51544       -0.834
        9.92904       14.17196        8.02377        0.417
       11.29888       14.54741        7.49987        0.417
       12.50746       18.27738       21.75379       -0.834
       13.18424       17.75014       21.32927        0.417
       11.89745       18.49703       21.04962        0.417
       16.14318       14.90639       22.81718       -0.834
       16.79958       14.37583       22.36566        0.417
       15.43159       14.29564       23.00915        0.417
       13.51973        4.58829        8.60241       -0.834
       12.64255        4.54317        8.98286        0.417
       13.93583        3.76578        8.86044        0.417
       21.03197        4.06205       23.41387       -0.834
       20.96788        4.99372       23.62388        0.417
       21.81509        3.99243       22.86788        0.417
       21.06054       10.33639       23.13905       -0.834
       20.15083       10.25784       23.42627        0.417
       21.01721       10.27381       22.18489        0.417
       17.90881        4.90100       14.19554       -0.834
       18.46577        5.65547       14.00371        0.417
       18.22275        4.57967       15.04077        0.417
       14.95401        6.70795        9.18531       -0.834
       15.00722        6.56093       10.12966        0.417
       14.40591        5.99306        8.86164        0.417
       26.75668       17.88829       16.18118       -0.834
       26.06341       18.06333       16.81755        0.417
       26.29807       17.79530       15.34616        0.417
       16.07814       12.36350       24.49028       -0.834
       15.19289       12.33662       24.12718        0.417
       16.13302       13.21391       24.92619        0.417
        8.30609       17.82940       25.43878       -0.834
        8.46807       16.88833       25.50498        0.417
        8.51222       18.17020       26.30918        0.417
        6.72203       12.89059       11.64152       -0.834
        6.10180       13.46379       11.19099        0.417
        6.62057       12.04170       11.21104        0.417
       14.72387        6.29148       11.94123       -0.834
       14.37364        5.53108       12.40530        0.417
       14.87973        6.94050       12.62732        0.417
        9.27245       16.10980       22.76891       -0.834
        8.58288       16.43115       22.18800        0.417
        8.95366       16.30416       23.65029        0.417
       20.51472        7.07890       14.25242       -0.834
       21.09806        6.34463       14.44423        0.417
       20.24236        7.39993       15.11207        0.417
        8.69706       25.40791       10.11143       -0.834
        9.31373       25.79948       10.72999        0.417
        8.85803       24.46652       10.17550        0.417
       24.55025        5.38759       11.41534       -0.834
       24.32411        6.00262       12.11307        0.417
       24.63392        5.93254       10.63287        0.417
        3.78678       22.20846       23.45782       -0.834
        3.11950       21.59799       23.14431        0.417
        4.54616       22.04141       22.89954        0.417
        8.61829       20.19215       22.99148       -0.834
        9.22676       19.50832       23.27143        0.417
        7.88636       20.12797       23.60500        0.417
       26.39235       28.47089       18.73937       -0.834
       25.77708       27.93297       18.24106        0.417
       27.19575       28.46097       18.21910        0.417
       22.57039       20.12575       27.79959       -0.834
       22.00251       20.79841       27.42372        0.417
       22.11160       19.83795       28.58884        0.417
       27.14185       14.31413       22.84437       -0.834
       27.84667       13.94915       23.37940        0.417
       26.87880       15.11088       23.30506        0.417
       23.67835        4.44150       21.44833       -0.834
       24.42627        4.87779       21.85638        0.417
       24.00425        3.57134       21.21842        0.417
       24.88733        9.56740       18.65988       -0.834
       24.57618       10.19165       19.31541        0.417
       24.10460        9.08095       18.40117        0.417
       16.63359       16.01973       31.26068       -0.834
       16.59427       16.31464       32.17047        0.417
       15.94765       16.51848       30.81688        0.417
       23.54880       11.10649       22.78575       -0.834
       23.89710       11.67150       23.47544        0.417
       22.60758       11.07180       22.95642        0.417
       27.48437       17.00731       24.03630       -0.834
       27.34101       17.95071       23.96096        0.417
       26.87086       16.72475       24.71452        0.417
       10.32715       20.07812        4.08689       -0.834
        9.48994       20.48012        4.31865        0.417
       10.83251       20.09055        4.89972        0.417
       30.88246       16.36432       20.29538       -0.834
       30.52709       15.81507       20.99414        0.417
       31.80391       16.11187       20.23683        0.417
       30.50619       15.59856       16.59551       -0.834
       31.12742       16.18890       16.16912        0.417
       30.97296       15.27465       17.36586        0.417
        7.44968       21.36259       26.99501       -0.834
        7.64690       20.49896       26.63241        0.417
        6.58226       21.57512       26.65056        0.417
       10.40903        8.09180       10.53993       -0.834
       10.14759        8.35872       11.42120        0.417
       10.78203        7.21776       10.65464        0.417
       11.63469       20.12897       16.96197       -0.834
       12.06267       19.42607       17.45085        0.417
       12.34350       20.73248       16.73929        0.417
        8.38794        9.66076       27.59234       -0.834
        7.81354        9.73983       28.35394        0.417
        8.00938       10.25411       26.94360        0.417
       21.02126       26.80250       13.17815       -0.834
       20.54690       26.90211       14.00356        0.417
       20.57446       27.39320       12.57179        0.417
       31.09780       18.38434       13.56527       -0.834
       31.62218       18.11277       14.31860        0.417
       30.22194       18.04376       13.74724        0.417
       10.30118       15.42160       17.36954       -0.834
       10.26531       16.36627       17.21938        0.417
       11.17490       15.26881       17.72942        0.417
       25.88300       13.86496        8.92428       -0.834
       25.34877       14.06003        8.15436        0.417
       25.48954       14.38256        9.62679        0.417
        4.91012       16.16979       15.13687       -0.834
        4.53309       15.58943       15.79813        0.417
        4.15402       16.59083       14.72790        0.417
       14.44777       25.88576       18.73263       -0.834
       15.16401       26.08449       19.33573        0.417
       14.57566       24.96532       18.50315        0.417
       14.93329        7.28587       19.60268       -0.834
       14.53989        7.29151       18.73006        0.417
       15.68202        6.69467       19.52454        0.417
       11.99931       26.53077       19.54019       -0.834
       11.44442       25.76221       19.40733        0.417
       12.81298       26.32148       19.08150        0.417
       24.12442       15.60787       14.33147       -0.834
       24.69793       15.20226       14.98170        0.417
       23.38217       15.00788       14.25860        0.417
       27.85514       17.62959        6.71164       -0.834
       27.43429       17.00747        7.30500        0.417
       27.51159       18.48310        6.97571        0.417
       21.11786       21.13817       12.25406       -0.834
       21.69052       20.43156       11.95575        0.417
       21.71629       21.83898       12.51287        0.417
       21.91364        5.05964       15.19851       -0.834
       22.32523        4.51290       14.52926        0.417
       22.59059        5.17268       15.86573        0.417
       22.70727       19.06712       20.91010       -0.834
       22.39252       19.94292       20.68618        0.417
       22.28094       18.48969       20.27682        0.417
       21.51340       11.79264       26.57849       -0.834
       21.54360       11.52971       25.65861        0.417
       20.76673       12.38907       26.63322        0.417
       21.53661       16.84334       25.91048       -0.834
       21.04919       16.58919       25.12685        0.417
       22.12041       17.54158       25.61404        0.417
       20.90336        8.41911        7.88564       -0.834
       20.82956        7.97275        8.72917        0.417
       20.51998        7.80809        7.25644        0.417
       16.99919       15.37137       28.28452       -0.834
       17.89703       15.67088       28.42742        0.417
       16.58655       15.43027       29.14619        0.417
       22.69148       24.79503       15.85058       -0.834
       22.34655       23.90622       15.93586        0.417
       22.19808       25.30649       16.49183        0.417
       19.00552       21.86643       13.84220       -0.834
       19.17166       22.79662       13.68929        0.417
       19.74921       21.42009       13.43730        0.417
       15.49111       28.86026       12.53351       -0.834
       15.73189       29.32496       13.33494        0.417
       15.36226       27.95340       12.81142        0.417
       11.11436       24.07229       18.58890       -0.834
       10.59402       23.41509       18.12677        0.417
       11.88656       23.59594       18.89391        0.417
        7.60359       23.70618       23.36624       -0.834
        7.00889       23.83940       24.10435        0.417
        7.19329       24.17536       22.63977        0.417
        6.01275       22.12334       21.75895       -0.834
        6.68730       22.54026       22.29503        0.417
        6.44293       21.95409       20.92078        0.417
       11.13078       26.01574       16.60052       -0.834
       10.97632       25.23606       17.13388        0.417
       10.30473       26.49807       16.63568        0.417
       18.27126       12.52654       10.49790       -0.834
       17.92000       13.19817        9.91330        0.417
       18.30840       11.73569        9.95993        0.417
       21.68852        7.85629       23.74176       -0.834
       20.85783        7.44367       23.97829        0.417
       21.45495        8.75884       23.52478        0.417
       19.75859        6.21593        6.57175       -0.834
       19.45008        5.68795        5.83534        0.417
       19.20690        5.94823        7.30674        0.417
       30.04514       22.79820       17.48578       -0.834
       29.56103       23.04998       16.69934        0.417
       29.54147       22.07319       17.85580        0.417
       11.25302       10.51058       22.01361       -0.834
       11.05650       10.40355       22.94429        0.417
       11.06459        9.65471       21.62857        0.417
        8.48832       15.17805        8.94622       -0.834
        7.90994       15.86249        8.60971        0.417
        8.93327       15.58416        9.69009        0.417
       27.52532       22.58796       24.67631       -0.834
       28.43481       22.63809       24.97050        0.417
       27.52584       23.01711       23.82071        0.417
        7.40600        9.82548       16.17674       -0.834
        7.12812       10.73589       16.07566        0.417
        7.14337        9.40224       15.35935        0.417
       12.81838       26.49978       11.73058       -0.834
       13.44395       25.99502       11.21084        0.417
       13.10589       26.37931       12.63560        0.417
       10.72549       15.02125       27.30495       -0.834
       10.86795       15.24554       28.22453        0.417
       11.53373       15.28555       26.86548        0.417
       25.13261       22.37117       26.06299       -0.834
       25.05598       21.44068       26.27403        0.417
       25.94817       22.43826       25.56641        0.417
       21.60488        6.93121       18.04955       -0.834
       22.11393        6.13189       17.91469        0.417
       21.72073        7.13582       18.97742        0.417
       13.02902       21.45228       14.93722       -0.834
       13.90896       21.07587       14.92137        0.417
       13.14969       22.32932       15.30119        0.417
       25.62596       14.20865       16.17549       -0.834
       26.12000       13.87367       15.42720        0.417
       26.27500       14.67512       16.70216        0.417
        2.29712       14.23268       13.42150       -0.834
        3.15083       13.80009       13.43790        0.417
        2.49403       15.14410       13.20519        0.417
       23.54500       24.13699       27.71209       -0.834
       23.84685       23.52825       27.03787        0.417
       22.84611       24.63604       27.28932        0.417
       13.82669        8.52658       21.52792       -0.834
       14.10565        7.92367       20.83878        0.417
       14.30758        9.33463       21.34897        0.417
       16.18378       12.51812        4.73058       -0.834
       15.92976       12.02029        3.95349        0.417
       15.52552       12.29051        5.38718        0.417
       12.68506        7.39020       24.03584       -0.834
       12.67380        6.50904       23.66213        0.417
       13.18851        7.91014       23.40940        0.417
        6.02967       10.84317        9.83997       -0.834
        6.47197       10.00760        9.69008        0.417
        6.44022       11.44653        9.22059        0.417
       11.21293        5.40536       10.16734       -0.834
       11.65619        5.11126       10.96311        0.417
       10.37466        4.94331       10.17484        0.417
       18.50985        9.30696       14.04804       -0.834
       19.09458        8.65656       14.43702        0.417
       18.99677        9.64968       13.29858        0.417
       10.84610       18.42175       19.68608       -0.834
       11.18711       17.86018       18.98995        0.417
        9.98153       18.06136       19.88328        0.417
       23.53639       17.37699       29.32851       -0.834
       23.23297       16.56068       29.72576        0.417
       22.84660       18.01069       29.52557        0.417
       24.39905       28.49240       15.97782       -0.834
       24.70352       29.27386       15.51646        0.417
       23.44517       28.52802       15.90655        0.417
       28.95241       11.22649       14.52799       -0.834
       29.76088       11.46720       14.98038        0.417
       29.23820       10.66159       13.81005        0.417
        7.13415       11.77963       26.44758       -0.834
        6.85427       12.68996       26.54352        0.417
        6.73587       11.49139       25.62628        0.417
        6.32024        9.12790       13.74018       -0.834
        5.62966        9.73558       13.47547        0.417
        5.88452        8.27718       13.79174        0.417
       18.48542       28.54987       12.25078       -0.834
       18.82477       29.16011       11.59604        0.417
       17.83728       28.02722       11.77858        0.417
       13.60704       27.19558       16.43066       -0.834
       14.10376       26.67952       17.06563        0.417
       12.69172       26.98087       16.61042        0.417
       13.56398       11.06077        3.32662       -0.834
       13.39697       10.11836        3.34225        0.417
       12.82734       11.44299        3.80358        0.417
       14.45713       21.76468        8.83209       -0.834
       14.38540       21.85161        9.78263        0.417
       13.92690       22.48195        8.48481        0.417
       19.56484        4.89380       21.38298       -0.834
       20.17716        4.21249       21.66068        0.417
       20.04187        5.38796       20.71629        0.417
       26.81354       24.37024       11.57210       -0.834
       25.99879       24.57990       12.02867        0.417
       26.58128       24.39353       10.64380        0.417
       15.57614        9.70791       11.07404       -0.834
       14.70617        9.85224       10.70179        0.417
       16.11322        9.43508       10.33017        0.417
       20.25828       18.41527       12.79113       -0.834
       19.31945       18.29093       12.93031        0.417
       20.33778       19.31818       12.48347        0.417
       26.84211       27.53661       14.05807       -0.834
       26.06042       27.14184       13.67161        0.417
       26.72738       27.42216       15.00145        0.417
       20.66136       22.16418       23.00442       -0.834
       19.79498       21.76005       22.95657        0.417
       21.11253       21.68322       23.69822        0.417
       11.44365       23.14444       21.79095       -0.834
       10.82883       23.82130       22.07397        0.417
       10.89606       22.48726       21.36143        0.417
       20.65011       11.84638       13.86269       -0.834
       20.15228       11.33281       13.22657        0.417
       19.99321       12.38686       14.30154        0.417
        9.94610       25.04841       22.82997       -0.834
        9.15239       24.52389       22.93548        0.417
        9.64060       25.95500       22.86153        0.417
       18.34547        8.55047       20.36011       -0.834
       19.05297        7.90818       20.41606        0.417
       17.80588        8.38103       21.13235        0.417
        8.55878       13.73552       13.42750       -0.834
        9.47124       13.54548       13.20948        0.417
        8.05293       13.30895       12.73585        0.417
       20.65481       17.27162        8.81285       -0.834
       21.58496       17.43891        8.96474        0.417
       20.29254       18.12593        8.57803        0.417
       22.61632       14.72042        8.49174       -0.834
       21.89002       14.17908        8.18244        0.417
       22.64233       15.45807        7.88229        0.417
       27.71631       13.94768       14.58815       -0.834
       28.40709       14.03290       15.24526        0.417
       27.81972       13.06013       14.24495        0.417
       10.67813        3.35015       22.19015       -0.834
       11.26734        4.09494       22.30989        0.417
       11.09215        2.63623       22.67506        0.417
       17.37272        2.59627       22.90198       -0.834
       17.01699        3.41549       22.55766        0.417
       17.31627        1.98327       22.16899        0.417
        3.94597        9.84466       20.60543       -0.834
        3.65501        9.67542       19.70937        0.417
        4.88810        9.99485       20.52751        0.417
       12.68187        8.59165        7.11976       -0.834
       13.50564        8.18653        7.39090        0.417
       12.00412        8.05935        7.53635        0.417
       11.36079       17.73581        3.37634       -0.834
       11.71929       17.82880        2.49369        0.417
       10.81715       18.51422        3.49780        0.417
       10.64466       10.34567       24.54989       -0.834
       10.44954        9.41003       24.49754        0.417
       10.83510       10.49972       25.47522        0.417
       10.34029       29.92992       15.63895       -0.834
        9.53679       29.91200       16.15885        0.417
       10.14456       29.38621       14.87586        0.417
       19.93147       10.24351       11.85094       -0.834
       20.68254        9.74153       11.53452        0.417
       19.48352       10.53214       11.05579        0.417
       26.91690       14.54341        6.16573       -0.834
       27.63491       15.17642        6.16459        0.417
       27.28468       13.76260        5.75183        0.417
       22.97737       24.82829       20.07087       -0.834
       23.86231       25.12081       19.85284        0.417
       22.68033       25.44221       20.74252        0.417
       19.02490       17.78699        3.51818       -0.834
       19.90040       17.43734        3.68393        0.417
       18.86562       18.38954        4.24467        0.417
       14.46707       22.34057       17.73067       -0.834
       14.62802       21.40372       17.84310        0.417
       13.81038       22.55256       18.39402        0.417
       24.07228       11.72251       19.91627       -0.834
       24.44197       12.44580       20.42265        0.417
       23.37804       11.36996       20.47302        0.417
       23.17746       14.61165       26.37350       -0.834
       22.54990       15.33431       26.38603        0.417
       23.32195       14.40324       27.29650        0.417
       14.58659       10.34272       29.28344       -0.834
       15.25872       10.58184       28.64524        0.417
       13.77471       10.31314       28.77727        0.417
       15.14568        4.57022       23.50176       -0.834
       15.24328        5.33577       24.06801        0.417
       15.71533        4.75064       22.75397        0.417
        7.21927       12.99922       15.63929       -0.834
        7.48624       13.61564       16.32118        0.417
        7.72005       13.26343       14.86750        0.417
       24.63369       25.46499       13.54278       -0.834