%Nproc=32
%Mem=120Gb
%chk=temp.chk
#p cam-b3lyp/6-31+G(d,p) nosymm charge Freq 

Calculation for S0 with freq for abs spect

0  1
 C         15.43266       16.90383       17.46880
 C         17.83096       16.51232       17.50234
 C         17.90017       16.10661       16.25472
 C         16.63302       16.17913       15.38287
 N         15.51747       16.58202       16.10417
 H         18.68628       16.55150       18.17716
 H         18.80901       15.87185       15.79884
 O         16.66771       16.00634       14.16257
 O         14.45708       17.39424       18.00387
 N         16.66849       16.93097       18.10299
 H         16.61560       17.10041       19.10352
 H         14.63889       16.79438       15.60718
 O         21.49533       17.48313       15.09789
 H         20.73231       17.91750       15.47916
 H         21.71591       16.79282       15.72325
 O         18.49959       18.16486       13.79325
 H         18.20718       17.26083       13.67696
 H         18.22999       18.39168       14.68325
 O         11.79780       17.87130       18.15627
 H         11.49805       18.66913       17.72056
 H         12.72781       17.81321       17.93732
 O         19.24527       19.36449       16.38790
 H         18.33601       19.34792       16.08921
 H         19.60189       20.17585       16.02632
 O         13.09720       15.56562       14.66549
 H         13.15449       15.00294       15.43773
 H         12.35130       16.13916       14.84127
 O         13.03865       13.93040       16.61581
 H         13.73796       13.35042       16.91718
 H         12.28685       13.35239       16.48573
 O         14.01546       20.51166       15.74464
 H         13.42430       19.76020       15.69917
 H         13.45055       21.27056       15.59911
 O         16.66790       13.30081       14.23677
 H         15.97181       13.08242       13.61709
 H         16.64299       14.25567       14.29893
 O         14.17054       18.34032       21.15772
 H         15.01627       17.91536       21.01498
 H         13.52484       17.66011       20.96636
 O         14.93713       12.22668       17.43507
 H         15.75489       11.76491       17.24997
 H         14.48793       11.67274       18.07350
 O         14.85910       14.24523       20.03777
 H         14.59372       14.02557       19.14471
 H         14.84844       13.40920       20.50379
 O         16.62597       19.33956       15.57260
 H         16.28475       19.56631       14.70751
 H         15.93397       19.60165       16.17979
 O         20.39566       18.91424       19.41069
 H         21.16365       19.48553       19.40333
 H         19.73161       19.39851       18.92002
 O         21.16854       16.08691       19.09621
 H         21.68203       16.17140       18.29283
 H         20.85294       16.97301       19.27362
 O         14.27466       18.16845       12.81946
 H         14.34834       17.22996       12.99288
 H         13.81159       18.22239       11.98346
 O         17.35028       11.23712       16.02821
 H         18.28787       11.07962       16.13951
 H         17.29635       11.86617       15.30875
 O         19.13527       15.87381       20.83096
 H         19.92581       16.13301       20.35757
 H         18.97674       14.97050       20.55688
 O         19.75567       13.07065       14.34635
 H         18.85848       13.24565       14.06237
 H         19.65863       12.51268       15.11802
 O         16.92210       17.39789       21.33537
 H         17.31893       18.06945       21.89013
 H         17.62338       16.76331       21.18781
 
       10.23594        6.80546       12.44417       -0.834
       10.50872        5.89927       12.58782        0.417
       10.53688        7.27304       13.22330        0.417
        8.84296        5.26730       10.20125       -0.834
        9.09606        5.48812       11.09759        0.417
        8.11558        4.65324       10.30163        0.417
        7.52663       21.54757        8.81077       -0.834
        8.09265       21.81640        9.53436        0.417
        7.72052       22.17038        8.11024        0.417
       18.48219        3.05500       23.53914       -0.834
       17.86985        2.32122       23.59265        0.417
       18.07734        3.66059       22.91817        0.417
       21.54073       15.03339       23.20334       -0.834
       22.18749       15.14307       22.50628        0.417
       21.20484       14.14538       23.08150        0.417
        2.45354       16.64129       15.11693       -0.834
        2.83160       17.40810       14.68641        0.417
        2.81458       15.89503       14.63841        0.417
       26.51837       24.71958       14.73686       -0.834
       27.15387       25.12637       14.14788        0.417
       26.80100       23.80737       14.80179        0.417
       18.33500        8.81635       26.92277       -0.834
       17.80328        9.52351       26.55744        0.417
       18.81048        8.46106       26.17182        0.417
       13.49658       20.55107       23.00241       -0.834
       13.87760       19.73069       22.68930        0.417
       14.22746       21.16915       23.00602        0.417
       19.21528       28.83429       10.29912       -0.834
       20.10046       29.19247       10.36550        0.417
       19.13011       28.26210       11.06174        0.417
        4.95887       12.50804       21.88784       -0.834
        5.53068       12.97601       22.49633        0.417
        4.82619       11.65141       22.29381        0.417
       11.45972       15.29893       18.57085       -0.834
       11.71438       16.21827       18.64952        0.417
       11.99473       14.96238       17.85201        0.417
       19.33482        8.20990        5.51376       -0.834
       19.57326        7.44735        6.04091        0.417
       19.12519        8.88891        6.15503        0.417
       20.40614       22.74837       12.36301       -0.834
       21.04326       22.81178       11.65147        0.417
       19.55889       22.68740       11.92179        0.417
        4.62439        8.24458       15.49844       -0.834
        4.78720        7.44651       14.99565        0.417
        4.90459        8.95396       14.92008        0.417
       19.41285       21.00859       28.98848       -0.834
       19.38525       21.95819       29.10568        0.417
       20.18684       20.72885       29.47726        0.417
       12.70679       18.49072       29.53071       -0.834
       12.32286       19.00847       30.23836        0.417
       13.23457       17.82850       29.97696        0.417
       16.06672       14.28398       29.78256       -0.834
       16.14344       14.70033       30.64105        0.417
       16.18622       13.35044       29.95705        0.417
       20.33141       20.43448        7.64432       -0.834
       19.90452       20.30304        8.49091        0.417
       20.99665       19.74755        7.60177        0.417
       21.61005       27.69297       19.01926       -0.834
       21.58264       27.41993       18.10223        0.417
       22.47534       28.08801       19.12627        0.417
       11.99312        8.75531       17.07970       -0.834
       11.82546        9.43131       17.73632        0.417
       12.94353        8.64196       17.08923        0.417
       21.82489       18.94316       10.34264       -0.834
       22.46725       18.65212       10.98987        0.417
       21.94612       19.89139       10.29380        0.417
       15.25518       11.94784       21.99860       -0.834
       15.29577       12.78202       22.46627        0.417
       15.87514       11.38338       22.46041        0.417
       14.23922       20.85834       19.21487       -0.834
       15.03530       20.91190       19.74366        0.417
       13.88560       19.98853       19.40090        0.417
        8.31010        9.12041       12.63176       -0.834
        8.08212        9.70054       11.90532        0.417
        9.08648        8.64977       12.32849        0.417
       10.15757       14.39860       30.12159       -0.834
       10.80179       13.80358       30.50522        0.417
       10.20020       15.18323       30.66819        0.417
       13.25067       16.33952        9.65130       -0.834
       13.53222       16.19556       10.55476        0.417
       12.94056       15.48304        9.35721        0.417
       11.83875        7.61371       10.12462       -0.834
       12.65128        7.16157        9.89748        0.417
       11.87170        7.70248       11.07713        0.417
        7.23898       16.62357       22.52627       -0.834
        6.34746       16.77863       22.83833        0.417
        7.21827       15.73423       22.17288        0.417
       23.69243       18.32546        5.80833       -0.834
       23.06721       18.01323        6.46243        0.417
       23.69037       17.64821        5.13189        0.417
       21.45553        5.85857       22.77045       -0.834
       22.08762        6.56417       22.63327        0.417
       21.96967        5.14638       23.15080        0.417
       21.26555       23.21542        5.89179       -0.834
       21.98299       22.96904        5.30799        0.417
       20.82908       23.93965        5.44322        0.417
       15.94348       29.63162       18.18606       -0.834
       15.41901       28.83907       18.30018        0.417
       16.27528       29.82805       19.06216        0.417
       26.15534       15.78081        7.89236       -0.834
       25.49314       15.54927        7.24112        0.417
       26.71502       15.00652        7.95128        0.417
       19.26865       28.01772        7.50873       -0.834
       19.17101       28.42041        8.37159        0.417
       20.16704       27.68753        7.49825        0.417
       27.65609       11.71628       19.67472       -0.834
       28.17996       11.53719       20.45557        0.417
       28.05064       11.17423       18.99153        0.417
        1.75938       18.33584       20.57733       -0.834
        0.89049       17.93502       20.55259        0.417
        2.35640       17.60489       20.73705        0.417
       24.07664       23.50408       27.50057       -0.834
       24.14283       22.97598       26.70498        0.417
       24.58575       24.29166       27.30887        0.417
       29.06174       11.70399       12.86801       -0.834
       28.61480       10.96239       13.27607        0.417
       28.42344       12.05754       12.24848        0.417
       22.91889       29.72835       14.85108       -0.834
       22.49197       28.92470       15.14792        0.417
       22.77321       30.35376       15.56092        0.417
        4.92869       12.61756       17.24707       -0.834
        4.39593       11.93700       17.65844        0.417
        5.52118       12.90994       17.93968        0.417
        8.48907        8.66638       20.43332       -0.834
        8.54884        8.84500       19.49484        0.417
        8.03965        7.82308       20.48897        0.417
        7.24006       25.93099       20.51833       -0.834
        7.47064       25.82440       21.44121        0.417
        7.79095       26.65267       20.21514        0.417
        6.61371       21.10762       17.93823       -0.834
        6.29277       21.74142       18.57975        0.417
        5.82437       20.67490       17.61278        0.417
       11.75308       10.40469       26.59686       -0.834
       11.03300       11.02057       26.73249        0.417
       11.65602       10.11822       25.68871        0.417
       27.48563       15.06065       18.65983       -0.834
       27.37517       14.61245       17.82129        0.417
       27.28802       15.97771       18.46964        0.417
        3.83320       22.83056       16.37960       -0.834
        3.61816       22.92192       17.30784        0.417
        4.27232       23.65040       16.15316        0.417
       19.35974       11.72476        3.12633       -0.834
       20.22183       11.76529        2.71233        0.417
       19.18196       10.78883        3.21936        0.417
       24.93228       13.86809       13.55987       -0.834
       24.00604       14.10873       13.53952        0.417
       25.28680       14.20858       12.73853        0.417
        7.09308        7.88745        9.23351       -0.834
        6.92520        7.63599       10.14171        0.417
        7.79656        8.53414        9.28967        0.417
       13.42559       20.20007        9.98559       -0.834
       13.17554       20.61729       10.80999        0.417
       13.93037       20.86823        9.52191        0.417
       21.87681       22.30072       17.76958       -0.834
       22.31915       21.62887       18.28842        0.417
       22.49794       22.51374       17.07313        0.417
       28.19621       25.57917       12.76771       -0.834
       27.83088       24.90045       12.20016        0.417
       27.73545       26.37859       12.51303        0.417
       14.55164       13.80658        3.72567       -0.834
       14.61644       14.46113        3.03026        0.417
       15.05412       14.17688        4.45136        0.417
       16.64614       29.76694        9.96486       -0.834
       16.84202       30.23634       10.77574        0.417
       17.29833       29.06723        9.92907        0.417
       26.12505        5.59605       22.12804       -0.834
       26.08406        4.82580       22.69484        0.417
       25.41138        5.47185       21.50235        0.417
       20.55569       16.47520        2.40147       -0.834
       21.29662       16.49568        3.00714        0.417
       19.88628       17.01423        2.82285        0.417
        9.03355       11.58478       17.83549       -0.834
        8.63636       11.74145       16.97879        0.417
        8.34881       11.81552       18.46328        0.417
       19.41039        7.32089       23.25464       -0.834
       20.06437        6.64395       23.08056        0.417
       19.88890        8.00039       23.72955        0.417
       24.76199       18.91171       18.60953       -0.834
       25.19332       18.43279       17.90183        0.417
       25.34685       18.80877       19.36024        0.417
       17.83539       19.54143       22.61072       -0.834
       18.16961       20.43761       22.64803        0.417
       17.19859       19.49291       23.32371        0.417
        6.09945       22.35203       20.41452       -0.834
        7.03182       22.56060       20.35617        0.417
        5.78813       22.85317       21.16829        0.417
       16.23860       18.78282       24.57260       -0.834
       16.60849       18.03275       25.03822        0.417
       15.85216       19.32528       25.26008        0.417
       22.31117       11.94310       24.02438       -0.834
       21.60620       12.06526       24.66026        0.417
       23.10760       12.17670       24.50124        0.417
       18.31156       22.10584       22.64494       -0.834
       17.63062       22.43675       22.05921        0.417
       19.13350       22.33897       22.21332        0.417
       10.93591       10.86735       23.73581       -0.834
       10.10909       10.89395       23.25425        0.417
       11.54237       10.41851       23.14676        0.417
       19.59199        5.82556        7.33428       -0.834
       19.24571        5.44470        6.52727        0.417
       19.90549        5.07488        7.83868        0.417
        6.62529       11.93109       19.53529       -0.834
        6.26566       11.99640       20.41996        0.417
        6.05615       11.30291       19.09065        0.417
       16.90721       19.74104       31.62381       -0.834
       16.70111       19.84891       30.69530        0.417
       17.36825       18.90355       31.67158        0.417
       15.80917       25.83872       16.34071       -0.834
       15.60393       26.66687       16.77462        0.417
       15.39608       25.17167       16.88902        0.417
       24.02480        6.71327       19.66814       -0.834
       24.63109        7.45135       19.60585        0.417
       23.53256        6.87432       20.47312        0.417
       19.35896       14.39313       10.64177       -0.834
       18.59899       14.89944       10.92869        0.417
       20.09347       15.00308       10.71029        0.417
       10.58491       25.27528       10.89765       -0.834
       10.45820       26.21904       10.99512        0.417
       10.44772       24.92264       11.77688        0.417
       27.43411       20.38900       18.03538       -0.834
       27.69821       19.48971       18.22972        0.417
       26.47799       20.35674       18.00339        0.417
       16.31374       28.04861       24.69769       -0.834
       17.02391       27.40727       24.67358        0.417
       15.65752       27.70289       24.09262        0.417
        5.65909       13.22663        9.44298       -0.834
        5.31747       13.37566        8.56132        0.417
        6.44613       13.76935        9.49031        0.417
       26.79606       16.88632       13.16435       -0.834
       27.12235       17.63438       12.66414        0.417
       27.58268       16.39645       13.40412        0.417
       25.32214       12.12954       24.75360       -0.834
       25.87184       11.50470       24.28068        0.417
       25.25267       12.88136       24.16521        0.417
       21.65645       10.32430        5.01531       -0.834
       21.10303        9.74051        5.53411        0.417
       21.99182        9.77217        4.30898        0.417
       10.91085        4.03965       12.71811       -0.834
       11.52869        3.39670       13.06613        0.417
       10.10508        3.54388       12.57260        0.417
       22.31440       19.70544       25.54012       -0.834
       21.53390       19.82007       24.99798        0.417
       22.01494       19.18368       26.28465        0.417
       17.56514        9.69276       22.96902       -0.834
       17.88603        8.86507       23.32706        0.417
       17.46360        9.52560       22.03202        0.417
       26.43157       22.88837       21.84730       -0.834
       27.07173       23.03728       21.15141        0.417
       25.96064       23.71837       21.92179        0.417
       23.76691        4.81489       17.95351       -0.834
       23.55514        5.35136       17.18959        0.417
       23.94200        5.44766       18.65006        0.417
       14.37577       22.63355        8.74885       -0.834
       13.97750       23.38745        8.31383        0.417
       15.03291       23.01275        9.33246        0.417
        4.51414       18.79756       10.84222       -0.834
        4.94007       19.62446       10.61625        0.417
        3.65181       18.85136       10.43026        0.417
        4.30129       18.26982       13.70598       -0.834
        4.63523       17.39863       13.91982        0.417
        3.89031       18.16534       12.84783        0.417
       21.37457       14.27331        7.64056       -0.834
       20.49698       14.64311        7.73704        0.417
       21.47656       14.14001        6.69819        0.417
       10.17597       12.47824        8.69794       -0.834
       10.00207       12.27476        9.61696        0.417
       10.71479       11.75004        8.38871        0.417
       13.67581        9.68478       11.36867       -0.834
       13.10801       10.08824       12.02522        0.417
       13.80317        8.78853       11.67970        0.417
       13.81803       15.06291       12.24866       -0.834
       14.00631       14.12568       12.19993        0.417
       13.33973       15.16917       13.07096        0.417
       13.28290       10.98081        9.04356       -0.834
       13.24785       10.36064        8.31528        0.417
       13.50980       10.44547        9.80393        0.417
       16.52862        8.24041       17.39327       -0.834
       16.70113        8.59720       16.52197        0.417
       16.92329        7.36850       17.37803        0.417
       24.29632       18.59649       24.01891       -0.834
       24.26867       17.64852       24.14864        0.417
       23.70044       18.94678       24.68109        0.417
       22.35823       11.84231        8.56183       -0.834
       22.55791       11.22464        7.85838        0.417
       21.89188       12.55707        8.12840        0.417
       21.70428        5.78606       15.37494       -0.834
       21.05386        5.37186       14.80783        0.417
       22.53943        5.63551       14.93213        0.417
       12.73305       20.92604        4.17111       -0.834
       12.98664       21.68650        3.64804        0.417
       13.17601       21.05330        5.01005        0.417
       29.12435       15.38016       13.16459       -0.834
       29.22452       14.84757       13.95360        0.417
       29.99644       15.74180       13.00684        0.417
       20.95523       24.40641       23.99681       -0.834
       21.89589       24.49773       23.84499        0.417
       20.63374       23.92997       23.23137        0.417
       24.29073        5.42030       14.05558       -0.834
       25.23182        5.57847       13.98102        0.417
       24.04176        5.05009       13.20871        0.417
       12.95119       23.09555       20.33207       -0.834
       13.84308       23.43895       20.38549        0.417
       13.03334       22.29349       19.81614        0.417
       24.19129       25.83733       16.00546       -0.834
       24.77412       26.58698       15.88478        0.417
       24.67299       25.09700       15.63653        0.417
       28.05002       22.76101       19.29003       -0.834
       27.87527       21.88747       18.93986        0.417
       27.29435       23.28314       19.02062        0.417
       19.35416        5.43958       13.91844       -0.834
       18.79195        5.86014       13.26784        0.417
       18.77925        4.82015       14.36790        0.417
       18.53916       25.86907       18.47498       -0.834
       18.89409       25.70849       17.60064        0.417
       17.69324       26.28839       18.31731        0.417
       15.61520       13.62477       24.80006       -0.834
       14.68776       13.84648       24.88325        0.417
       15.95022       14.23617       24.14415        0.417
        7.27611       13.57070       23.13929       -0.834
        7.00576       13.23410       23.99360        0.417
        7.98225       12.98625       22.86359        0.417
       17.44427       15.57527        2.82228       -0.834
       17.84710       14.77316        2.48974        0.417
       18.15992       16.21042        2.84795        0.417
       17.82023        2.73964       13.91201       -0.834
       18.61048        2.91586       14.42259        0.417
       17.82415        1.79112       13.78340        0.417
       16.28665        6.20993       10.57357       -0.834
       16.99205        6.83463       10.74205        0.417
       16.72655        5.36203       10.51221        0.417
       19.33976       26.45160       24.72968       -0.834
       19.96652       25.72979       24.77875        0.417
       19.63517       26.97574       23.98519        0.417
        9.00379       22.01230       24.91335       -0.834
        8.47904       21.57238       25.58219        0.417
        9.52822       21.31376       24.52189        0.417
       18.06969       23.45024       15.29156       -0.834
       18.02337       23.68689       14.36524        0.417
       17.16623       23.24529       15.53236        0.417
        2.63350       15.57688       10.92481       -0.834
        2.21712       15.06462       10.23166        0.417
        2.88303       14.92979       11.58454        0.417
       17.49133       29.72365       13.92645       -0.834
       17.30032       28.78652       13.88739        0.417
       16.90708       30.05953       14.60621        0.417
        3.95185       13.82259       12.76885       -0.834
        3.99377       13.67397       13.71351        0.417
        4.06649       12.95375       12.38389        0.417
        3.20633       22.67565       19.11467       -0.834
        3.89408       22.42500       19.73144        0.417
        2.39191       22.41320       19.54372        0.417
       19.68023       19.94638       26.50672       -0.834
       19.81830       20.22008       27.41350        0.417
       19.02987       20.56102       26.16690        0.417
       23.16187       25.30967        8.65269       -0.834
       22.45166       24.66794        8.65642        0.417
       22.81742       26.04590        8.14716        0.417
       23.29098       12.55636       20.48323       -0.834
       22.48147       12.29184       20.04624        0.417
       23.89892       12.74520       19.76840        0.417
       10.75125       28.24306       22.56109       -0.834
       11.03652       28.11158       23.46528        0.417
       10.25652       29.06223       22.58224        0.417
       12.14361       29.08113       18.32816       -0.834
       11.44491       29.68053       18.06595        0.417
       12.45845       29.42973       19.16218        0.417
       13.74479       28.88478       14.27446       -0.834
       13.27616       29.57416       13.80394        0.417
       14.12964       28.34299       13.58556        0.417
       10.84649       22.73578       18.19140       -0.834
       10.91451       23.66330       18.41790        0.417
       11.12685       22.27451       18.98188        0.417
        5.61740       16.17488       10.49847       -0.834
        5.01923       15.44041       10.63625        0.417
        5.10900       16.94778       10.74420        0.417
       20.05153       17.62090       30.33328       -0.834
       19.13032       17.74346       30.56262        0.417
       20.16510       16.67120       30.29536        0.417
       16.05136       20.23908       12.69837       -0.834
       15.40105       19.54584       12.58549        0.417
       16.86615       19.85972       12.36910        0.417
       19.46795       30.58914       15.66330       -0.834
       19.12657       29.97801       16.31615        0.417
       19.01479       30.35340       14.85380        0.417
       25.68771       23.77983       18.54202       -0.834
       25.52393       23.41051       17.67426        0.417
       24.98312       24.41511       18.66934        0.417
       17.17833       27.12031       13.89344       -0.834
       16.55656       26.98526       13.17833        0.417
       16.83179       26.59554       14.61508        0.417
       19.33415       11.87029       24.80062       -0.834
       19.05773       12.27933       23.98053        0.417
       18.95766       10.99080       24.76896        0.417
       25.74152       18.29734       15.18851       -0.834
       26.04716       17.55672       14.66477        0.417
       26.03217       19.07004       14.70405        0.417
       10.59145       13.73731       23.86106       -0.834
       10.69522       14.12314       22.99123        0.417
       10.51892       12.79667       23.69926        0.417
       11.78656       17.05273       22.35013       -0.834
       12.23705       17.25849       23.16925        0.417
       10.88847       17.35385       22.48796        0.417
       10.00632        6.96642       27.00675       -0.834
       10.49709        6.86791       26.19087        0.417
       10.43488        6.36770       27.61839        0.417
       21.85971       15.80569        5.02542       -0.834
       20.90728       15.71387        4.99951        0.417
       22.19073       14.92910        4.82986        0.417
       22.91870       14.81916       28.23604       -0.834
       23.08208       15.64101       28.69874        0.417
       22.64024       15.08790       27.36056        0.417
       19.88316       24.85581       20.58861       -0.834
       19.34467       25.07614       19.82853        0.417
       20.11245       25.70166       20.97358        0.417
       29.88886       14.24010       15.71962       -0.834
       30.56376       13.63039       15.42130        0.417
       30.35890       14.86957       16.26650        0.417
       31.35088       15.86518       17.30011       -0.834
       31.94538       16.60331       17.16613        0.417
       31.90850       15.09095       17.22356        0.417
       18.80600       10.68057       28.93053       -0.834
       18.79140        9.85923       28.43918        0.417
       18.88930       11.35940       28.26084        0.417
       16.89045       29.67880       20.93861       -0.834
       17.72504       29.28685       20.68158        0.417
       17.12161       30.31056       21.61954        0.417
       10.05949       27.10035       15.61802       -0.834
        9.69559       26.28526       15.96361        0.417
       10.91860       27.17478       16.03349        0.417
       13.22175       18.00151        4.60360       -0.834
       12.72756       17.50253        3.95320        0.417
       13.24960       18.89165        4.25272        0.417
       16.65519       20.39549       28.78058       -0.834
       16.21368       20.59693       27.95552        0.417
       17.53659       20.75349       28.67475        0.417
       18.59323       13.26390       20.01561       -0.834
       19.46862       12.94394       19.79754        0.417
       18.00005       12.60520       19.65436        0.417
       20.06183       23.63440       29.34338       -0.834
       20.08067       24.51335       29.72197        0.417
       20.68470       23.67233       28.61756        0.417
        7.06069       18.63430       12.36345       -0.834
        6.74280       19.14347       13.10905        0.417
        6.27168       18.41851       11.86633        0.417
        6.86580       12.52590       25.66202       -0.834
        7.56901       12.12988       26.17671        0.417
        6.35740       13.02946       26.29778        0.417