%Nproc=32
%Mem=120Gb
%chk=temp.chk
#p cam-b3lyp/6-31+G(d,p) nosymm charge Freq 

Calculation for S0 with freq for abs spect

0  1
 C         15.31989       16.88315       17.25366
 C         17.65519       17.48858       17.03801
 C         17.98371       16.30774       16.45791
 C         16.97648       15.40961       15.95984
 N         15.73830       15.74940       16.59244
 H         18.42986       18.20478       17.29385
 H         18.96364       15.96714       16.10571
 O         17.08714       14.38034       15.34292
 O         14.18389       17.24459       17.46000
 N         16.38916       17.81292       17.42743
 H         16.18936       18.76720       17.80462
 H         14.99748       15.07527       16.44328
 O         12.23899       18.49725       19.01364
 H         12.85305       18.25744       18.31963
 H         12.55768       18.03231       19.78727
 O         13.72390       13.79638       15.16820
 H         13.05169       14.02820       15.80899
 H         13.29281       13.90024       14.31991
 O         13.24399       14.48820       18.65145
 H         13.08493       15.31126       18.18939
 H         13.83182       14.72535       19.36870
 O         19.50810       13.98455       13.98841
 H         19.74125       14.84973       13.65176
 H         18.67872       14.12077       14.44646
 O         14.73559       15.45403       20.77899
 H         15.28812       15.21028       21.52164
 H         14.23851       16.21140       21.08808
 O         17.80268       20.19366       14.49141
 H         17.40469       20.49517       15.30806
 H         18.73448       20.38798       14.59249
 O         15.96239       21.21292       16.66284
 H         16.78358       21.25170       17.15312
 H         15.31711       20.90534       17.29943
 O         20.32252       20.36376       15.63421
 H         20.58973       19.44512       15.60365
 H         20.93760       20.77248       16.24319
 O         19.67510       12.92796       17.37793
 H         18.98169       12.58238       16.81581
 H         20.04391       12.15559       17.80647
 O         15.44815       12.22036       13.87341
 H         14.61111       12.19105       14.33681
 H         15.83719       13.05545       14.13323
 O         14.30910       20.28174       14.73803
 H         14.76232       20.84068       15.36924
 H         14.78642       20.40951       13.91823
 O         15.30747       19.88380       19.15868
 H         14.44462       20.16824       18.85732
 H         15.25772       19.93652       20.11313
 O         18.14217       20.91968       17.98760
 H         18.80376       20.84402       17.29999
 H         18.55869       20.54492       18.76367
 O         12.00545       18.02817       14.71173
 H         12.84648       18.40695       14.96750
 H         11.40778       18.77485       14.67306
 O         14.96612       12.18962       20.33544
 H         15.14886       12.83500       19.65256
 H         14.10976       12.44168       20.68090
 O         17.33995       11.62937       16.29965
 H         17.36553       10.99087       15.58698
 H         16.66319       12.25378       16.03827
 O         20.07432       16.69690       20.31873
 H         20.24278       17.43405       19.73182
 H         20.94354       16.36194       20.53892
 
       16.87888       26.92985       14.82057       -0.834
       16.19298       26.26659       14.74405        0.417
       16.40503       27.75100       14.95252        0.417
       16.87094       26.60288        6.09820       -0.834
       17.66863       26.99192        5.73965        0.417
       17.17810       25.85544        6.61123        0.417
        9.56681       11.63457       25.35361       -0.834
        8.80347       12.20337       25.45373        0.417
       10.03564       11.71366       26.18438        0.417
       10.32329       21.91361       21.85809       -0.834
        9.66237       22.50332       21.49526        0.417
       10.64953       21.42482       21.10252        0.417
       18.71079       24.71511        7.53971       -0.834
       19.21664       23.91598        7.39224        0.417
       19.36190       25.41666        7.52918        0.417
       23.35202       19.07880        5.13970       -0.834
       22.87904       19.90821        5.20748        0.417
       22.90333       18.60310        4.44068        0.417
       13.23591       18.01164       24.38597       -0.834
       12.55656       18.45165       24.89694        0.417
       14.01787       18.05803       24.93608        0.417
       27.18286       10.78679       14.04077       -0.834
       26.65058       10.09426       14.43232        0.417
       27.57699       11.23773       14.78747        0.417
       19.13981       11.03452       13.41691       -0.834
       19.03693       11.96014       13.63799        0.417
       19.62615       10.66444       14.15362        0.417
       17.90359       10.89801       10.89280       -0.834
       18.51122       10.42639       11.46254        0.417
       18.35565       11.71556       10.68426        0.417
       24.22464       10.24527       22.26165       -0.834
       24.36106       11.17684       22.43430        0.417
       23.68247       10.22422       21.47308        0.417
       20.80174       17.29157        4.30831       -0.834
       20.22369       16.95875        3.62178        0.417
       21.67737       17.01209        4.04114        0.417
       10.54592       10.30935       19.36387       -0.834
       11.21064        9.99983       19.97916        0.417
       11.03241       10.83664       18.73021        0.417
       18.15800       22.81532        5.33766       -0.834
       17.56569       22.13226        5.65204        0.417
       18.92548       22.74752        5.90564        0.417
       23.96643       15.15599       14.70680       -0.834
       23.05663       14.99301       14.95568        0.417
       24.07874       16.10063       14.81296        0.417
        6.88664       14.98481       17.78823       -0.834
        6.69177       15.66227       18.43577        0.417
        6.96801       14.17999       18.29998        0.417
       26.75424       25.93741       17.90159       -0.834
       26.92069       26.82918       17.59622        0.417
       26.47368       26.04345       18.81059        0.417
       16.21436       25.22839       24.77488       -0.834
       15.87880       24.77539       24.00131        0.417
       15.76369       24.81340       25.51035        0.417
       25.62088       10.08331       26.48109       -0.834
       25.83399        9.51253       27.21934        0.417
       25.35364        9.48431       25.78396        0.417
       19.81589       23.97243       13.02750       -0.834
       20.20441       24.12516       13.88887        0.417
       19.02072       24.50527       13.02499        0.417
       12.37475        4.29318       23.34939       -0.834
       12.65499        3.59247       22.76057        0.417
       13.19036        4.66544       23.68470        0.417
       19.51866       15.96325       29.95155       -0.834
       19.02276       15.64520       29.19713        0.417
       20.01568       15.20174       30.25038        0.417
       30.76487       19.83283       12.53339       -0.834
       31.29905       19.04640       12.64484        0.417
       30.73897       20.23066       13.40362        0.417
       21.00217       12.91900       27.10502       -0.834
       20.25373       12.50294       26.67727        0.417
       20.92059       12.67104       28.02594        0.417
       22.24886       19.08847        8.91276       -0.834
       23.15708       18.81129        8.79219        0.417
       21.73962       18.28152        8.83712        0.417
       19.51982       30.10297       23.11907       -0.834
       19.21998       29.20403       22.98403        0.417
       20.27775       30.19250       22.54136        0.417
       29.71879       15.17892       15.99101       -0.834
       28.80594       14.89097       15.98552        0.417
       29.80764       15.71008       15.19968        0.417
       22.26018       26.76235       24.81481       -0.834
       21.35549       27.02949       24.65226        0.417
       22.24492       26.38632       25.69493        0.417
       19.29378       13.09761        9.39915       -0.834
       19.83014       13.50513        8.71910        0.417
       18.91544       13.83389        9.87975        0.417
       24.70034       21.76209       15.44008       -0.834
       24.73550       22.68849       15.67838        0.417
       25.56207       21.57752       15.06648        0.417
       20.99256        5.09992        7.70361       -0.834
       21.17706        5.94608        8.11130        0.417
       20.46602        5.31428        6.93352        0.417
        7.34019       23.30019       16.15200       -0.834
        7.18127       23.56305       17.05857        0.417
        6.63971       23.72126       15.65373        0.417
        6.04820        8.74012       14.41299       -0.834
        5.72468        8.28285       13.63681        0.417
        5.33739        9.33351       14.65564        0.417
       22.15286       11.01195       30.45010       -0.834
       21.78045       11.47432       29.69927        0.417
       21.50703       11.12694       31.14718        0.417
       27.29558        9.48084        8.56500       -0.834
       27.43117       10.17591        9.20900        0.417
       27.28869        9.93325        7.72148        0.417
       22.04049       26.15628       11.82205       -0.834
       22.63871       26.89656       11.92370        0.417
       22.51860       25.40999       12.18354        0.417
       11.79618        8.27980        5.12221       -0.834
       10.94376        8.67648        4.94262        0.417
       12.41633        9.00653        5.06301        0.417
       10.53776        8.56862       23.19441       -0.834
       10.78928        9.36426       23.66336        0.417
        9.69219        8.78031       22.79890        0.417
       15.41409       22.97018       20.15738       -0.834
       16.04646       22.55609       20.74464        0.417
       15.34633       22.36923       19.41543        0.417
       11.49594       25.77224       13.04315       -0.834
       10.72396       25.27208       12.77837        0.417
       11.78372       25.35695       13.85614        0.417
       14.54115       23.77413        3.71711       -0.834
       13.80410       23.20802        3.94625        0.417
       15.15782       23.19550        3.26863        0.417
       13.33104       29.92231       19.51597       -0.834
       13.90649       29.42626       18.93372        0.417
       13.01201       29.27599       20.14583        0.417
        9.48826       21.95715        4.52422       -0.834
        9.81721       22.18809        5.39295        0.417
       10.22544       22.12291        3.93659        0.417
       10.11405       15.31750       19.73058       -0.834
       10.90592       15.10297       20.22368        0.417
        9.41575       14.83985       20.17832        0.417
       20.95427        8.08377       11.54963       -0.834
       21.83319        7.98071       11.18478        0.417
       20.64552        8.91939       11.19941        0.417
       16.52942       19.96053       12.02302       -0.834
       17.12234       19.72696       12.73725        0.417
       17.03178       20.57175       11.48425        0.417
        9.95982       13.17716        8.28723       -0.834
       10.57701       12.82569        7.64552        0.417
        9.93667       14.11716        8.10809        0.417
       21.02758       23.11110       17.89805       -0.834
       21.75551       23.71621       18.04018        0.417
       21.44373       22.29826       17.61109        0.417
       10.64265       20.88302       19.39947       -0.834
        9.82681       20.84786       18.90007        0.417
       11.24689       20.32334       18.91174        0.417
       20.19202       25.11733       28.94139       -0.834
       20.43815       25.51029       29.77878        0.417
       19.96500       24.21305       29.15814        0.417
        8.86160       18.31504        4.02775       -0.834
        8.37400       18.46386        3.21761        0.417
        9.61343       18.90436        3.96705        0.417
       14.88452        9.60107       18.90199       -0.834
       14.73552        9.77895       19.83064        0.417
       14.20189       10.09709       18.45008        0.417
       16.28936       20.92232       31.58459       -0.834
       16.48651       20.95395       30.64845        0.417
       16.25799       19.98835       31.79181        0.417
        5.58441        6.42070       15.42170       -0.834
        6.43866        6.14856       15.75703        0.417
        5.72026        7.31868       15.11936        0.417
       31.11168       15.71169       21.27945       -0.834
       30.61611       15.49121       20.49076        0.417
       31.93376       16.07674       20.95211        0.417
       13.20744       20.29862       29.40527       -0.834
       12.29959       20.60194       29.39939        0.417
       13.14878       19.37009       29.63027        0.417
       17.24774        4.30903        7.14911       -0.834
       17.51866        3.39103        7.13852        0.417
       17.26578        4.55391        8.07428        0.417
       26.27543       15.40186        8.92289       -0.834
       25.39925       15.51043        9.29269        0.417
       26.78268       14.99237        9.62378        0.417
       13.78561       17.56777        2.46914       -0.834
       13.99591       18.22168        3.13577        0.417
       14.28409       16.79259        2.72768        0.417
       22.26891       27.31422       21.83073       -0.834
       22.09385       26.88898       22.67023        0.417
       21.69846       26.86209       21.20912        0.417
       18.88369       23.70412       19.72202       -0.834
       19.23627       23.51952       18.85148        0.417
       19.48532       23.26441       20.32280        0.417
       24.46434       24.94756       15.40647       -0.834
       24.81600       25.06153       16.28941        0.417
       24.97829       25.54605       14.86435        0.417
        8.81373       19.56576       25.34128       -0.834
        8.44305       19.43739       26.21441        0.417
        9.51487       20.20460       25.46977        0.417
        6.87088       21.44047       24.83663       -0.834
        7.58533       20.80368       24.85380        0.417
        7.30597       22.28651       24.73104        0.417
        5.93887       22.12342       18.97507       -0.834
        5.78725       21.19968       19.17496        0.417
        5.10873       22.42927       18.60962        0.417
       12.46520       10.62156       15.17839       -0.834
       12.21182       11.06604       15.98738        0.417
       11.73929       10.78627       14.57659        0.417
       23.06887       21.46754       25.73002       -0.834
       23.24684       20.52766       25.76449        0.417
       22.13908       21.52785       25.51075        0.417
       18.78956       19.19080       28.94073       -0.834
       18.53699       18.34873       28.56210        0.417
       18.11291       19.79967       28.64467        0.417
       18.38138       23.48875       27.36090       -0.834
       18.62858       24.09850       26.66569        0.417
       18.34730       22.63465       26.93010        0.417
       12.43312       22.35505       13.64768       -0.834
       12.25345       22.75151       14.50019        0.417
       12.77667       21.48596       13.85480        0.417
        7.95638       20.17047       21.17817       -0.834
        7.79569       20.34270       20.25040        0.417
        8.90854       20.20963       21.26813        0.417
        6.34885       21.89216       10.92669       -0.834
        6.52843       21.79181       11.86152        0.417
        5.62703       22.51955       10.88698        0.417
       14.68681        8.43861       21.92177       -0.834
       14.07345        9.11234       22.21523        0.417
       14.17466        7.89027       21.32742        0.417
       29.87790       14.56332       23.28584       -0.834
       30.61418       14.72917       22.69711        0.417
       29.14095       14.38068       22.70294        0.417
       13.22598        6.00306        6.82235       -0.834
       12.67260        6.75598        6.61473        0.417
       14.09220        6.24406        6.49399        0.417
       18.91006       28.93896       18.30118       -0.834
       19.76387       29.34025       18.46306        0.417
       18.53190       29.45757       17.59107        0.417
        5.24667       14.31745       21.50755       -0.834
        5.63527       15.13500       21.81874        0.417
        5.51879       13.66246       22.15033        0.417
       16.72854       13.17805       23.66934       -0.834
       17.34805       13.65388       23.11614        0.417
       16.52531       12.38439       23.17434        0.417
       12.64525       29.39558        9.65923       -0.834
       12.67013       29.47661       10.61267        0.417
       11.88385       29.91165        9.39432        0.417
       23.45447       28.98751       15.37188       -0.834
       24.24292       29.09605       15.90367        0.417
       22.99773       28.24568       15.76851        0.417
       15.79587       27.84463       25.90728       -0.834
       16.52525       28.00336       26.50646        0.417
       15.84328       26.90829       25.71424        0.417
       15.10724       28.48579       17.65145       -0.834
       15.18585       29.01413       16.85716        0.417
       15.50139       27.64472       17.42022        0.417
       14.14046       27.02555        6.83978       -0.834
       13.71673       26.19432        6.62589        0.417
       15.03854       26.92532        6.52414        0.417
       25.23178       18.41426       27.15376       -0.834
       25.54835       19.16720       27.65285        0.417
       25.89194       18.28269       26.47324        0.417
       15.30390       28.31887        9.33847       -0.834
       14.38339       28.51279        9.51533        0.417
       15.30068       27.90708        8.47438        0.417
       10.60816       20.86743       29.62643       -0.834
       10.34842       21.19683       30.48682        0.417
       10.25478       19.97847       29.59311        0.417
        7.90047       17.24813       13.18494       -0.834
        7.20555       17.82318       12.86455        0.417
        7.52694       16.82930       13.96037        0.417
       28.79553       18.19146       18.65638       -0.834
       28.41102       18.57455       17.86794        0.417
       29.72671       18.10575       18.45196        0.417
       15.01786       25.75697       20.39974       -0.834
       15.02251       24.79979       20.39594        0.417
       15.81615       25.99897       20.86921        0.417
        9.17197       23.83633       12.78067       -0.834
        9.73868       23.08436       12.60862        0.417
        8.98875       24.20176       11.91515        0.417
       19.99485       22.19610        7.24298       -0.834
       20.28539       22.00637        8.13507        0.417
       20.13697       21.37883        6.76538        0.417
       22.28701        7.21998       21.53498       -0.834
       22.67920        7.98664       21.11707        0.417
       22.13583        7.49124       22.44040        0.417
       28.43136        9.40087       12.24089       -0.834
       27.88428        8.61562       12.22276        0.417
       28.04293        9.94827       12.92332        0.417
        7.21286       21.98870       13.69651       -0.834
        7.87545       22.64393       13.47770        0.417
        6.52714       22.48191       14.14680        0.417
        4.93807       19.74729       25.62749       -0.834
        5.53649       20.43502       25.33567        0.417
        4.32417       20.19460       26.20995        0.417
       22.34647        7.75561       27.33971       -0.834
       22.81254        8.29187       27.98114        0.417
       21.44905        8.08820       27.35559        0.417
        3.65750       13.22270       19.23064       -0.834
        4.10296       13.98294       19.60459        0.417
        2.73362       13.35841       19.44102        0.417
       28.22961       17.86993        8.00225       -0.834
       28.69960       18.56726        8.45950        0.417
       27.47802       17.67910        8.56344        0.417
       20.24057       24.69564       15.91143       -0.834
       19.55402       25.17438       16.37586        0.417
       20.46504       23.97120       16.49541        0.417
       15.71171       24.71532       12.94105       -0.834
       16.48037       25.05341       12.48160        0.417
       14.97869       24.90786       12.35637        0.417
       10.79667        5.41076       10.64036       -0.834
       11.09717        4.57450       10.28455        0.417
       10.61928        5.22904       11.56326        0.417
       23.69752       23.66480       12.62667       -0.834
       23.76714       23.93557       13.54214        0.417
       24.58982       23.73442       12.28729        0.417
       25.00117       19.21341       18.27075       -0.834
       25.60582       19.93794       18.11049        0.417
       25.51745       18.42670       18.09530        0.417
       17.33736       12.61409        6.62499       -0.834
       17.73392       13.39198        7.01725        0.417
       17.43998       12.74202        5.68194        0.417
        6.01503        7.52146       21.14472       -0.834
        6.42979        6.68581       21.35895        0.417
        6.70389        8.02797       20.71445        0.417
       19.23152       28.30964       14.33467       -0.834
       18.89873       29.20386       14.25809        0.417
       18.47989       27.79876       14.63515        0.417
       10.73351        6.18432       21.93302       -0.834
       10.65884        7.05059       22.33330        0.417
       11.29534        5.69129       22.53093        0.417
       23.55160       15.60386        9.86983       -0.834
       23.50860       16.22864       10.59374        0.417
       22.67057       15.60907        9.49568        0.417
       18.12867        6.84220       18.34727       -0.834
       17.96026        7.71663       17.99623        0.417
       17.61303        6.25731       17.79207        0.417
       16.31538       21.16701        6.44552       -0.834
       16.34558       20.25181        6.72429        0.417
       15.52690       21.51806        6.85940        0.417
       24.52300        8.82783       24.46121       -0.834
       24.64596        9.05401       23.53928        0.417
       23.57445        8.84589       24.58830        0.417
       21.59759       21.75233        9.31858       -0.834
       21.63989       22.00064       10.24204        0.417
       21.51657       20.79863        9.32999        0.417
        2.95708       20.46448       20.15844       -0.834
        3.38750       19.62976       20.34340        0.417
        3.01947       20.95364       20.97884        0.417
       10.00668       27.84671       15.74609       -0.834
        9.24826       28.04540       16.29524        0.417
        9.76594       27.04242       15.28631        0.417
       15.42034       10.90356        7.11809       -0.834
       15.64172       10.42233        7.91536        0.417
       16.12574       11.54313        7.02014        0.417
       31.69296       18.40390       17.22524       -0.834
       32.48984       17.93857       17.47956        0.417
       31.45675       18.02928       16.37666        0.417
       16.97619        9.31648       14.67464       -0.834
       16.10563        9.23051       15.06319        0.417
       17.20194        8.42991       14.39308        0.417
        8.83279       25.82020       10.88811       -0.834
        9.15006       26.69828       11.09914        0.417
        7.89602       25.93538       10.72866        0.417
       11.74023       11.39626       27.40499       -0.834
       12.13763       12.08092       27.94308        0.417
       11.94648       10.58129       27.86271        0.417
       16.91051        6.09657       25.44447       -0.834
       16.90086        6.19243       24.49213        0.417
       16.40116        5.30344       25.61101        0.417
        5.46246       13.07786       24.52256       -0.834
        5.93494       13.91020       24.53685        0.417
        5.04589       13.02357       25.38264        0.417
       27.48666       11.72213       10.28545       -0.834
       26.59379       12.04040       10.15235        0.417
       27.72376       12.03116       11.15982        0.417
       23.79391       24.64133       21.82624       -0.834
       23.04972       24.43199       22.39068        0.417
       24.56311       24.42316       22.35252        0.417
       14.35525       15.61026        5.14494       -0.834
       14.14735       15.33618        6.03819        0.417
       14.30073       14.80625        4.62839        0.417
        6.50742       16.93190       19.65333       -0.834
        5.95791       17.51136       20.18106        0.417
        7.40287       17.14687       19.91443        0.417
       13.36548        9.72472       12.71135       -0.834
       13.22853       10.53167       13.20765        0.417
       14.30936        9.69656       12.55473        0.417
       24.18182       25.60283        8.70922       -0.834
       23.92225       25.11699        7.92640        0.417
       23.35504       25.86466        9.11432        0.417
        3.30762       22.39903       17.80129       -0.834
        3.50155       21.85629       17.03706        0.417
        3.18238       21.77313       18.51459        0.417
       16.31804       15.52723        1.58025       -0.834
       16.99667       15.93357        2.11930        0.417
       16.76487       15.29588        0.76597        0.417
       19.00204       24.93206       25.11195       -0.834
       19.48126       25.73179       24.89513        0.417
       18.08200       25.15993       24.97845        0.417
       26.82960       19.60734       12.88662       -0.834
       27.21396       20.21579       13.51771        0.417
       26.40876       20.16993       12.23653        0.417
        8.90058        7.16629       25.38636       -0.834
        9.08091        6.23527       25.51635        0.417
        9.56268        7.61472       25.91244        0.417
       16.72010       17.44353       28.06402       -0.834
       16.13373       18.09701       27.68277        0.417
       16.38148       17.30412       28.94840        0.417
        8.76894        8.26486        7.39657       -0.834
        7.88494        8.53497        7.64521        0.417
        8.74833        8.22723        6.44033        0.417
       16.84733       22.42457        3.03733       -0.834
       17.61158       21.91785        2.76277        0.417
       17.09787       22.79790        3.88237        0.417
       12.38806       10.21220       24.54558       -0.834
       11.83320       10.79930       25.05907        0.417
       13.22677       10.21012       25.00687        0.417
       30.93045       12.44074       17.18522       -0.834
       30.46829       12.66674       16.37802        0.417
       30.34903       11.82401       17.63001        0.417
        5.93590       26.96939       18.54327       -0.834
        6.52733       26.30983       18.90581        0.417
        5.43466       27.28217       19.29637        0.417
       22.92206       12.79869        7.38669       -0.834
       23.45214       13.05668        8.14080        0.417
       23.38228       13.16706        6.63255        0.417
       19.51215        6.59655       24.37317       -0.834
       19.58546        5.66577       24.16220        0.417
       18.71109        6.66244       24.89297        0.417
       14.83107       24.97081       27.36054       -0.834
       15.39553       24.36863       27.84530        0.417
       13.96858       24.86751       27.76262        0.417
       23.93627       13.88944        4.83547       -0.834
       24.36139       14.44920        5.48521        0.417
       24.62607       13.29307        4.54437        0.417
       17.06278       19.49377       24.32148       -0.834
       17.84272       19.02551       24.61921        0.417
       17.27549       20.41854       24.44714        0.417
        5.92452       13.56015        8.45136       -0.834
        6.14888       12.98903        7.71670        0.417
        5.20883       13.10737        8.89746        0.417
        8.12643       13.82731       10.46766       -0.834
        8.72314       13.58898        9.75818        0.417
        7.29918       14.02591       10.02897        0.417
       24.47070       18.25458        7.48372       -0.834
       24.16084       18.38185        6.58704        0.417
       24.68868       17.32380        7.53247        0.417
       12.39145        7.45112       14.06850       -0.834
       12.63059        8.12205       13.42906        0.417
       11.59881        7.78875       14.48557        0.417
       16.61652       13.82510       29.40841       -0.834
       17.09228       13.75839       30.23632        0.417
       17.25690       14.17946       28.79150        0.417
        6.80866       15.41518       24.82833       -0.834
        7.68093       15.14475       25.11512        0.417
        6.58919       16.15598       25.39338        0.417
        4.87091       14.73373       12.38961       -0.834
        5.66178       14.79695       12.92510        0.417
        4.60710       13.81619       12.45858        0.417
       16.33914       29.79741       11.59870       -0.834
       16.24083       29.42519       10.72233        0.417