%Nproc=32
%Mem=120Gb
%chk=temp.chk
#p cam-b3lyp/6-31+G(d,p) nosymm charge Freq 

Calculation for S0 with freq for abs spect

0  1
 C         15.33872       17.20224       17.18176
 C         17.12195       15.54679       17.18000
 C         17.82966       16.20204       16.23294
 C         17.30928       17.42707       15.60169
 N         16.04460       17.73679       16.13945
 H         17.48365       14.54695       17.40330
 H         18.79957       15.85962       15.96967
 O         17.82942       18.14739       14.78622
 O         14.30496       17.70792       17.54051
 N         15.94141       16.13785       17.73614
 H         15.35169       15.49464       18.31831
 H         15.66099       18.55758       15.79283
 O         19.53188       13.94714       19.38693
 H         20.46471       14.07968       19.55577
 H         19.11942       14.76576       19.66256
 O         18.27514       19.39558       18.65548
 H         17.46701       19.90748       18.62210
 H         18.82465       19.85571       19.28995
 O         12.38194       15.85148       15.76022
 H         13.00353       15.12645       15.69556
 H         12.23818       15.96124       16.70018
 O         14.01143       13.77425       15.50475
 H         14.19532       13.26836       16.29627
 H         13.87552       13.11466       14.82453
 O         16.00994       15.31545       14.00090
 H         15.35462       15.00864       14.62752
 H         16.82242       14.89074       14.27606
 O         15.96114       16.35521       22.08946
 H         15.63582       17.17483       21.71715
 H         15.80491       15.70279       21.40669
 O         18.50510       14.05964       13.98047
 H         18.97714       14.81300       13.62570
 H         19.16229       13.58074       14.48543
 O         15.73465       17.41574       12.34031
 H         16.55624       17.59513       11.88310
 H         15.95997       16.74420       12.98413
 O         13.28997       13.55208       18.41115
 H         12.95123       14.44688       18.43966
 H         12.68404       13.04866       18.95490
 O         21.32951       16.66946       17.80717
 H         20.55577       16.31286       18.24352
 H         21.64829       17.34891       18.40127
 O         18.84958       16.69481       19.53141
 H         18.72716       16.61199       20.47713
 H         18.62615       17.60554       19.33935
 O         12.35792       16.13557       18.35851
 H         12.95347       16.88099       18.28168
 H         11.87843       16.29429       19.17161
 O         20.05746       19.25770       16.44040
 H         19.53082       19.04529       17.21097
 H         19.64050       18.77756       15.72497
 O         18.91811       20.16679       13.07346
 H         18.30760       19.99602       13.79064
 H         18.57470       19.65728       12.33950
 O         15.19806       18.47258       20.28724
 H         14.75486       19.23078       20.66794
 H         14.96900       18.50214       19.35832
 O         12.75230       16.51488       13.13503
 H         12.86585       16.44158       14.08264
 H         13.61946       16.75311       12.80714
 O         15.77679       14.00708       20.22703
 H         16.02243       13.39190       20.91801
 H         15.02149       13.60113       19.80166
 O         14.74585       20.89508       15.53601
 H         13.82369       21.09919       15.69158
 H         14.79086       20.68367       14.60354
 
       13.62770       14.98886        9.85720       -0.834
       14.16962       15.50540       10.45363        0.417
       13.92131       15.24547        8.98303        0.417
       18.16607       26.50458       16.07284       -0.834
       18.40624       27.18209       15.44076        0.417
       18.83913       25.83165       15.97073        0.417
       15.53325       19.14543        9.52981       -0.834
       14.63480       19.12673        9.85946        0.417
       15.69261       20.06554        9.31949        0.417
       11.16402       18.80075       30.43619       -0.834
       11.59966       18.27686       29.76388        0.417
       10.23205       18.72871       30.23011        0.417
       16.40478       29.50249       22.65163       -0.834
       16.83686       28.92219       22.02491        0.417
       16.95069       30.28861       22.66664        0.417
       20.31134       27.77360       21.35546       -0.834
       20.62860       27.55150       20.48011        0.417
       20.01817       28.68177       21.28121        0.417
        3.45970       23.90937       11.94794       -0.834
        3.59881       23.60742       11.05032        0.417
        3.78973       23.19646       12.49481        0.417
       19.78445       30.33527       20.45514       -0.834
       18.97279       30.32549       19.94786        0.417
       19.87446       31.24260       20.74646        0.417
       26.46816       22.73995        6.94235       -0.834
       26.52285       23.58508        6.49626        0.417
       25.98440       22.92440        7.74745        0.417
       15.46785       21.61519        7.88927       -0.834
       15.57293       21.07146        7.10854        0.417
       15.59035       22.51130        7.57591        0.417
       11.67797        3.85191       22.47498       -0.834
       12.38696        3.78735       21.83514        0.417
       11.76309        3.06148       23.00809        0.417
       11.26047       12.90364       20.23431       -0.834
       10.41781       13.16849       19.86549        0.417
       11.17755       13.07802       21.17183        0.417
       24.26572        8.98717       16.43708       -0.834
       25.20722        9.13523       16.34828        0.417
       24.12042        8.12541       16.04659        0.417
       18.20258       11.71312        6.76765       -0.834
       17.78000       11.73717        7.62618        0.417
       19.13768       11.64987        6.96212        0.417
       22.68906       23.00911        5.40713       -0.834
       23.13779       23.80662        5.12633        0.417
       22.75312       23.02127        6.36210        0.417
       27.22310       25.50787       18.12350       -0.834
       28.13959       25.67962       17.90721        0.417
       26.76978       26.32422       17.91292        0.417
       13.44141        6.23570       23.04514       -0.834
       12.57481        5.84415       23.15436        0.417
       13.92666        5.60126       22.51765        0.417
       15.14076       29.58698       11.85453       -0.834
       14.85186       30.41222       11.46498        0.417
       14.51771       28.93707       11.52948        0.417
       10.82628       25.58882       17.36310       -0.834
       11.08687       25.53966       16.44336        0.417
       10.44989       24.72928       17.55216        0.417
       20.27754       12.52381       15.65151       -0.834
       20.59898       11.64020       15.47223        0.417
       20.07779       12.52118       16.58764        0.417
       17.16486       18.98034       28.09904       -0.834
       17.68447       18.40587       28.66137        0.417
       17.49516       18.81464       27.21605        0.417
       11.95282        5.51867       11.79744       -0.834
       12.25660        6.42173       11.88925        0.417
       11.96262        5.35690       10.85406        0.417
        4.19516       14.97775       12.80914       -0.834
        3.93152       14.52558       12.00773        0.417
        3.77243       14.48528       13.51271        0.417
       12.40110       11.80132       30.66597       -0.834
       12.99531       11.84084       29.91658        0.417
       11.99894       12.66929       30.69941        0.417
        8.22787       25.06092       19.88524       -0.834
        8.64767       25.90414       20.05543        0.417
        8.77699       24.42308       20.34116        0.417
       11.09877       20.97881        5.26081       -0.834
       10.48284       21.70001        5.39026        0.417
       11.75511       21.09761        5.94735        0.417
       22.93014       16.30526        8.78705       -0.834
       23.27327       16.08878        9.65402        0.417
       22.36046       17.05992        8.93600        0.417
       20.39526        5.72072       20.02101       -0.834
       21.01876        5.17592       19.54072        0.417
       19.53600        5.41713       19.72821        0.417
       16.52001       11.70700       12.91866       -0.834
       16.33894       11.68102       13.85822        0.417
       16.96347       10.87846       12.73672        0.417
        5.36103        9.41615       22.39797       -0.834
        5.06336        8.77096       23.03934        0.417
        5.88110        8.91100       21.77301        0.417
       17.94328        6.06956       10.82695       -0.834
       17.10911        6.36668       10.46348        0.417
       18.53279        6.03022       10.07385        0.417
       27.64251        7.05797       18.50755       -0.834
       28.58641        6.92291       18.42359        0.417
       27.34461        7.23192       17.61468        0.417
       10.09123       17.07063       20.16593       -0.834
       10.62531       16.89870       20.94145        0.417
        9.38729       16.42357       20.21105        0.417
       23.38522       20.27547        9.66591       -0.834
       23.86238       19.80124       10.34683        0.417
       22.59517       20.59291       10.10327        0.417
        7.76380       13.67871       23.06702       -0.834
        6.97885       13.36848       22.61552        0.417
        7.50962       13.72065       23.98890        0.417
       21.90167       25.55565       10.28182       -0.834
       22.37190       24.72287       10.32182        0.417
       22.24717       25.98910        9.50144        0.417
        5.37320       18.31154       13.85394       -0.834
        6.31551       18.43085       13.97248        0.417
        5.27705       17.39207       13.60585        0.417
       11.48225        6.31769       14.87503       -0.834
       11.31405        6.77494       14.05110        0.417
       10.92523        5.54023       14.83608        0.417
       10.34524       11.68367        9.73263       -0.834
        9.75139       11.38652        9.04323        0.417
       10.70042       12.50952        9.40392        0.417
       10.31960       24.75145       14.62577       -0.834
       11.16295       24.88920       14.19447        0.417
        9.67568       24.81855       13.92072        0.417
        7.60060       13.52832        8.75774       -0.834
        7.96521       14.35629        9.07040        0.417
        6.69426       13.73586        8.53034        0.417
       21.97940        9.94895       19.58232       -0.834
       21.61653        9.24423       19.04573        0.417
       21.22861       10.29312       20.06614        0.417
       17.10203        6.22379       22.63194       -0.834
       17.22123        6.73612       21.83222        0.417
       17.99038        6.07266       22.95478        0.417
       23.72829       15.31912       29.68317       -0.834
       24.22949       15.45620       30.48706        0.417
       23.94118       16.07496       29.13578        0.417
       23.92950       29.34264       11.17100       -0.834
       24.52200       28.88882       10.57166        0.417
       23.49648       28.64111       11.65740        0.417
       26.22434       15.87864        9.21059       -0.834
       26.10741       16.79064        9.47669        0.417
       25.33402       15.53856        9.12164        0.417
        9.12365        4.97822       12.02257       -0.834
        8.81424        5.73920       12.51389        0.417
       10.07676        5.01062       12.10505        0.417
        6.66655       13.31652       11.55653       -0.834
        6.90530       13.23591       10.63309        0.417
        5.71351       13.40543       11.55113        0.417
       26.68074        8.89184       10.85045       -0.834
       27.33359        8.36719       10.38703        0.417
       27.09897        9.11579       11.68181        0.417
       15.82847       19.98859        5.80294       -0.834
       16.34491       19.19423        5.66693        0.417
       15.01025       19.82620        5.33351        0.417
       28.32532       17.80102       21.49457       -0.834
       27.68149       18.34565       21.94744        0.417
       28.68750       18.37127       20.81643        0.417
       21.55217       10.41307       10.97184       -0.834
       21.35066        9.74988       11.63199        0.417
       20.75524       10.93963       10.90960        0.417
       26.91832       25.89398       11.07122       -0.834
       26.48680       25.73357       11.91045        0.417
       27.84168       25.70274       11.23573        0.417
       16.59610       23.41688        2.37846       -0.834
       15.88021       23.78414        2.89696        0.417
       17.04570       22.82135        2.97799        0.417
       21.27137       30.80550       18.24281       -0.834
       20.84266       30.76276       19.09757        0.417
       21.96763       30.15038       18.29052        0.417
       28.45282       21.32940       23.53554       -0.834
       27.79678       21.22603       22.84623        0.417
       28.05335       20.93090       24.30875        0.417
       22.29799       27.60409       16.28568       -0.834
       22.47162       28.33567       15.69333        0.417
       22.17379       26.85142       15.70750        0.417
       25.60456       25.28459       20.24895       -0.834
       26.24757       25.54694       20.90770        0.417
       26.11573       25.16648       19.44833        0.417
       18.61619       27.99680       13.85564       -0.834
       18.48208       27.55566       13.01681        0.417
       19.34866       28.59277       13.69896        0.417
       28.08430       11.84121       23.70987       -0.834
       28.42268       12.37159       22.98847        0.417
       27.22128       11.55359       23.41202        0.417
       12.63627       26.01604        7.43961       -0.834
       13.31504       26.62624        7.72803        0.417
       12.27953       26.41220        6.64461        0.417
       16.91411       17.51082        5.53718       -0.834
       17.55885       18.00158        5.02759        0.417
       16.32563       17.13563        4.88208        0.417
       25.46835       24.19005        9.05202       -0.834
       25.78449       25.02532        9.39640        0.417
       25.84588       23.53166        9.63531        0.417
        3.23802       14.92367       21.92803       -0.834
        3.70242       14.91946       22.76502        0.417
        3.79314       15.44508       21.34819        0.417
       15.55323       22.36734       12.40237       -0.834
       14.93898       23.01779       12.74273        0.417
       15.09309       21.53278       12.49192        0.417
       21.80003        9.79630       23.71837       -0.834
       22.52579        9.20040       23.90385        0.417
       21.55569        9.60252       22.81339        0.417
        8.08125       18.75145       14.17957       -0.834
        8.30610       19.39920       14.84747        0.417
        8.85198       18.18652       14.12407        0.417
       18.91237       24.29875       10.58868       -0.834
       19.38852       24.13586       11.40291        0.417
       18.44512       23.48133       10.41626        0.417
       26.87552       10.43286       15.43552       -0.834
       27.63258       11.01854       15.44342        0.417
       26.21661       10.89929       14.92120        0.417
       10.72286       22.65619       20.96425       -0.834
       10.56982       21.71666       20.86378        0.417
       10.69039       22.80492       21.90927        0.417
       15.00413       14.01483        3.75270       -0.834
       14.23879       13.48455        3.97472        0.417
       15.60875       13.88098        4.48260        0.417
       11.24130        7.35860        8.16333       -0.834
       11.80635        6.59221        8.26129        0.417
       11.70538        8.05909        8.62178        0.417
       13.78551       21.93885       17.97768       -0.834
       14.31755       21.29052       17.51635        0.417
       14.03753       21.84623       18.89645        0.417
       10.62655       10.01096       20.14051       -0.834
       11.01036       10.88774       20.12702        0.417
       10.21542        9.94220       21.00218        0.417
       22.76727       27.14607       12.30543       -0.834
       22.52130       26.58366       11.57097        0.417
       22.41029       26.70439       13.07596        0.417
        3.65639       16.86931        7.91339       -0.834
        4.13982       17.59417        7.51703        0.417
        3.87484       16.91567        8.84418        0.417
       12.93455       19.59663       23.07866       -0.834
       12.88238       20.02473       23.93320        0.417
       13.85805       19.65930       22.83483        0.417
       19.22263       24.94379       19.27510       -0.834
       19.17582       25.88312       19.09696        0.417
       19.92286       24.62603       18.70506        0.417
       22.33033       16.17247        6.22742       -0.834
       21.41559       15.90139        6.30491        0.417
       22.63594       16.24703        7.13145        0.417
       14.01906       21.38781       20.75777       -0.834
       13.43775       21.16726       21.48556        0.417
       14.43530       22.20791       21.02314        0.417
       17.99930        4.87388       19.65438       -0.834
       18.01070        4.15461       19.02292        0.417
       17.45428        4.55361       20.37314        0.417
       12.32015       25.37659       27.39047       -0.834
       11.92449       26.14752       27.79715        0.417
       12.69782       25.70325       26.57384        0.417
       15.72939       28.46300       25.14605       -0.834
       15.99481       28.64311       24.24420        0.417
       15.56438       29.32652       25.52466        0.417
       25.56966        6.39229       20.20002       -0.834
       26.30406        6.60891       19.62560        0.417
       25.20879        7.24038       20.45838        0.417
       18.82392        7.59115       15.83051       -0.834
       19.07565        7.23844       14.97701        0.417
       17.86855        7.53316       15.84184        0.417
       11.54723        4.33290       18.35582       -0.834
       12.17046        3.63849       18.56941        0.417
       10.76597        3.86962       18.05377        0.417
        9.46146       18.50411       17.94044       -0.834
        8.71003       18.96948       18.30787        0.417
        9.82962       18.02087       18.68016        0.417
       16.99090       11.90358        9.25301       -0.834
       17.46130       11.32580        9.85394        0.417
       16.54121       12.52761        9.82275        0.417
        9.72366       11.41525       26.90308       -0.834
        9.64888       10.48473       27.11467        0.417
        8.97886       11.59122       26.32813        0.417
       23.23067       18.86028       29.80145       -0.834
       23.74209       19.55980       30.20809        0.417
       23.87610       18.33494       29.32850        0.417
        6.16869       21.77428       11.17469       -0.834
        6.01313       21.92219       12.10751        0.417
        6.46427       22.62223       10.84327        0.417
        8.66722       24.87329       12.55160       -0.834
        7.77230       25.12748       12.77687        0.417
        8.63067       24.66906       11.61715        0.417
       12.51120       12.01614        4.55369       -0.834
       12.77159       11.51976        3.77778        0.417
       11.55796       11.93403        4.58238        0.417
       22.95284        2.88497       15.75450       -0.834
       23.12095        3.39525       14.96229        0.417
       23.14129        1.98105       15.50223        0.417
       20.28128       13.98889       10.93653       -0.834
       20.61157       14.80304       11.31637        0.417
       19.42669       14.22251       10.57412        0.417
        5.46011       21.22829       17.47587       -0.834
        5.98152       21.97437       17.17968        0.417
        4.95682       20.96610       16.70504        0.417
       13.74300       12.47018        6.91444       -0.834
       14.17042       11.73905        7.36053        0.417
       13.22674       12.05941        6.22091        0.417
        8.22670       13.44537       28.41101       -0.834
        7.42199       12.96128       28.59631        0.417
        8.85130       12.77532       28.13330        0.417
       11.22808       11.46884       12.45204       -0.834
       10.79006       11.65271       11.62104        0.417
       11.00747       12.21479       13.00981        0.417
       24.92048       14.71051       26.52354       -0.834
       24.04138       15.07524       26.62551        0.417
       24.77442       13.80736       26.24207        0.417
       10.50898        8.67766       13.56854       -0.834
       10.82609        9.32234       12.93603        0.417
       10.28376        9.19242       14.34348        0.417
       20.19805        8.53296        8.87278       -0.834
       20.21041        7.63344        9.19979        0.417
       21.11937        8.74824        8.72768        0.417
        8.17908       16.60440       23.86984       -0.834
        8.55998       15.76093       23.62551        0.417
        8.76146       17.25388       23.47583        0.417
       11.56985       19.76267       13.27556       -0.834
       11.71066       18.98155       13.81058        0.417
       11.01523       19.46332       12.55513        0.417
       11.46678       25.03519        9.73531       -0.834
       11.98974       25.25061        8.96309        0.417
       10.86951       25.77650        9.83511        0.417
       20.13113       23.99418       15.10796       -0.834
       20.35877       23.21322       15.61245        0.417
       19.18046       24.06627       15.19319        0.417
       13.16588       16.35401       29.04785       -0.834
       14.09490       16.25966       28.83750        0.417
       12.95416       17.25428       28.80103        0.417
        6.75816        7.28932       21.12553       -0.834
        7.31298        7.15000       20.35807        0.417
        7.16158        6.75903       21.81275        0.417
       21.23060       27.68030        7.96546       -0.834
       20.55007       27.02078        7.83075        0.417
       20.99097       28.39610        7.37688        0.417
       16.08931       24.09918        6.84215       -0.834
       15.58633       24.39424        6.08308        0.417
       16.41384       24.90548        7.24315        0.417
       12.78606       20.44147       25.85536       -0.834
       12.41844       21.14868       26.38540        0.417
       13.73380       20.54870       25.93621        0.417
        9.33511       22.84254        5.91103       -0.834
        8.61596       23.15892        5.36426        0.417
        9.01623       22.94189        6.80806        0.417
       16.81147        4.60074       13.61444       -0.834
       15.94687        4.36748       13.27638        0.417
       16.92101        5.52184       13.37822        0.417
       25.01638       12.50960       20.20946       -0.834
       25.48939       12.21518       20.98780        0.417
       25.70321       12.76271       19.59267        0.417
       29.50126       13.61295       16.00371       -0.834
       29.44982       12.68827       16.24570        0.417
       28.92710       13.69402       15.24214        0.417
        6.40613       16.90292       17.56301       -0.834
        6.45970       17.12311       16.63302        0.417
        6.93895       17.56841       17.99827        0.417
       20.06752       16.67703        3.37525       -0.834
       19.86473       16.20986        4.18572        0.417
       19.49980       17.44748        3.39387        0.417
       19.22698       11.79030       12.16757       -0.834
       18.52521       12.23904       12.63915        0.417
       19.82336       12.49028       11.90186        0.417
       29.63561       20.07580       16.70538       -0.834
       29.32956       20.74215       16.09012        0.417
       30.28875       19.57747       16.21414        0.417
       16.23333       21.18780       28.94373       -0.834
       16.38902       20.38709       28.44288        0.417
       16.09941       20.88655       29.84238        0.417
        4.85720       14.08792        8.11249       -0.834
        4.42924       14.94389        8.09223        0.417
        4.43845       13.59351        7.40791        0.417
       22.86192       27.45109       25.31235       -0.834
       23.39963       26.83743       25.81287        0.417
       22.45341       26.91386       24.63358        0.417
        8.00772        6.02565       23.50241       -0.834
        8.71875        6.66639       23.49133        0.417
        8.32855        5.30181       22.96449        0.417
        7.05387       19.51405       18.78499       -0.834
        6.70010       19.50104       19.67432        0.417
        6.44846       20.06958       18.29399        0.417
       23.57653       25.83931       18.49634       -0.834
       24.28889       25.72310       19.12504        0.417
       23.98653       26.26935       17.74588        0.417
       26.90882        7.68053       15.68935       -0.834
       26.84322        8.63548       15.69186        0.417
       26.56504        7.41861       14.83528        0.417
       25.56390       17.53062       23.08851       -0.834
       24.99407       18.24477       22.80302        0.417
       25.25686       16.76798       22.59827        0.417
       14.06188       28.10146       17.73442       -0.834
       14.94469       28.42602       17.55681        0.417
       13.81543       28.51640       18.56105        0.417
       26.71664       16.87210        6.62012       -0.834
       26.57535       16.01642        6.21504        0.417
       26.52996       16.73193        7.54841        0.417
        9.91134        6.67675       20.61753       -0.834
        9.41038        6.08062       20.06084        0.417
       10.70921        6.85617       20.12008        0.417
       26.37583       18.56055        9.60157       -0.834
       26.21839       18.92077       10.47431        0.417
       27.25074       18.87080        9.36813        0.417
       19.38146       10.67022       19.88131       -0.834
       19.23318       10.24653       19.03589        0.417
       18.89988       11.49546       19.82391        0.417
       16.58495        9.67157        4.75555       -0.834
       16.21698       10.04800        5.55501        0.417
       15.83192        9.29852        4.29727        0.417
       21.09174        9.76491       15.20306       -0.834
       21.98670       10.06957       15.05322        0.417
       21.03062        8.94742       14.70888        0.417
       13.74913       26.72071       10.57507       -0.834
       14.27332       25.92435       10.66045        0.417
       14.07438       27.13772        9.77724        0.417
       29.71473       11.06061       15.44772       -0.834
       29.84953       10.13271       15.64019        0.417
       30.23449       11.22028       14.65994        0.417
       22.26219       12.45834       24.24253       -0.834
       21.43418       12.72999       23.84650        0.417
       22.34472       11.53229       24.01481        0.417
       13.16314       29.24504       14.85690       -0.834
       14.11348       29.20623       14.96449        0.417
       12.97936       30.16721       14.67785        0.417
       24.17420       19.59890        7.09116       -0.834
       24.14513       19.70540        8.04198        0.417
       24.27555       20.48863        6.75301        0.417
       16.67326       11.44844       15.96559       -0.834
       17.53129       11.21202       16.31790        0.417
       16.07627       10.79403       16.32834        0.417
       12.17642       11.39284       25.81702       -0.834
       11.39542       11.50018       26.35993        0.417
       12.53508       10.54449       26.07760        0.417
       23.89505       11.17754        6.16169       -0.834
       24.12716       10.83607        5.29812        0.417
       24.59357       10.86752        6.73804        0.417
        1.81032       15.71093       17.86723       -0.834
        1.20940       15.86632       18.59591        0.417
        1.93574       14.76203       17.85777        0.417
       28.48895        9.44969       12.80083       -0.834
       28.27206        9.11334       13.67035        0.417
       29.02046       10.22755       12.97012        0.417
       11.84545        6.97613       17.47975       -0.834
       11.69136        6.83016       16.54638        0.417
       11.56797        6.16162       17.89906        0.417
       17.94962       11.13580        2.51415       -0.834
       18.87544       10.89291        2.52433        0.417
       17.56416       10.64265        3.23834        0.417
       17.20920       23.45707       14.81172       -0.834
       16.55816       24.14074       14.96977        0.417
       16.78327       22.85696       14.19961        0.417
       13.01741        8.10245       11.88062       -0.834
       12.76826        8.40102       12.75527        0.417
       13.97395        8.13786       11.87837        0.417
        4.12477       21.66057       23.90600       -0.834
        3.76891       20.78915       23.73217        0.417
        4.95743       21.67825       23.43420        0.417
       18.52792       12.29575       25.31152       -0.834
       17.72691       12.20497       25.82762        0.417
       18.96064       11.44542       25.38845        0.417