%Nproc=32
%Mem=120Gb
%chk=temp.chk
#p cam-b3lyp/6-31+G(d,p) nosymm charge Freq 

Calculation for S0 with freq for abs spect

0  1
 C         15.81397       16.62006       17.75284
 C         17.23682       15.47795       16.21148
 C         16.87968       16.29849       15.18033
 C         16.03469       17.46749       15.44132
 N         15.62689       17.51972       16.78484
 H         17.87499       14.64973       16.10773
 H         17.21355       16.11884       14.14867
 O         15.79346       18.37771       14.64594
 O         15.41130       16.77238       18.87877
 N         16.74615       15.62746       17.44701
 H         16.90129       15.01911       18.23154
 H         15.15246       18.35593       17.07439
 O         19.77550       14.41369       13.91630
 H         19.87375       13.98470       14.76633
 H         18.85991       14.26781       13.67826
 O         16.48947       15.23619       11.95729
 H         16.72598       16.15335       11.81903
 H         17.03079       14.75213       11.33368
 O         17.33092       21.05918       14.66836
 H         18.07303       20.49768       14.89248
 H         16.58925       20.45858       14.59453
 O         13.91056       19.84619       17.40154
 H         13.98714       20.73930       17.06580
 H         14.36060       19.86787       18.24606
 O         14.17657       14.50495       13.32372
 H         14.51452       14.47266       14.21870
 H         14.91044       14.82913       12.80163
 O         17.04767       12.49450       13.71128
 H         16.90924       12.51239       14.65825
 H         16.23407       12.83923       13.34326
 O         20.41196       16.39651       18.05325
 H         19.75265       16.99293       18.40800
 H         20.36877       15.62644       18.62013
 O         13.28227       14.87359       19.67054
 H         14.16721       15.18335       19.47774
 H         12.70733       15.53590       19.28710
 O         15.11249       12.74564       15.78448
 H         15.05729       12.21401       16.57856
 H         14.22944       13.09642       15.66866
 O         14.47734       20.36200       13.15714
 H         14.53501       19.76610       13.90401
 H         14.31481       19.79083       12.40642
 O         19.24984       19.54863       15.68336
 H         19.69356       18.71795       15.51216
 H         19.47405       19.75806       16.59006
 O         12.46872       13.59381       16.02580
 H         11.59944       13.21407       15.89783
 H         12.36141       14.51891       15.80465
 O         20.40917       17.06790       15.36225
 H         20.23820       16.66154       16.21188
 H         20.06542       16.44300       14.72383
 O         16.09748       16.83290       21.57302
 H         16.08667       16.81076       20.61614
 H         15.21484       17.11188       21.81661
 O         17.13197       20.36047       17.68883
 H         16.55747       20.82609       18.29660
 H         16.88941       20.69492       16.82538
 O         18.57240       18.30968       19.04109
 H         18.02074       19.03840       18.75670
 H         18.13677       17.96969       19.82267
 O         12.02222       17.38781       19.33328
 H         11.07684       17.53582       19.35744
 H         12.33171       17.93097       18.60841
 O         16.92077       13.97137       19.70295
 H         16.69786       13.10323       19.36698
 H         16.78330       13.90556       20.64794
 
       12.18246       22.42614       12.80029       -0.834
       12.90891       22.06940       13.31141        0.417
       11.64585       21.66422       12.58175        0.417
        2.78026       20.35190       17.54738       -0.834
        3.28640       20.05027       18.30175        0.417
        3.41843       20.40503       16.83594        0.417
       18.67696       22.33617        9.02561       -0.834
       18.63338       21.55947        8.46787        0.417
       19.61332       22.48449        9.15776        0.417
       23.33804       15.04282       19.68690       -0.834
       22.50992       14.73107       19.32186        0.417
       23.51662       14.45027       20.41712        0.417
        8.69632        5.84479       10.33153       -0.834
        9.63782        6.01610       10.35285        0.417
        8.31194        6.55190       10.84969        0.417
        5.13162       15.91744       20.49440       -0.834
        5.59788       15.92353       21.33034        0.417
        5.09960       16.83705       20.23076        0.417
       12.85616       21.08004        6.17824       -0.834
       13.24798       20.75835        6.99017        0.417
       12.64013       20.28815        5.68582        0.417
       15.25730       29.27915       21.68025       -0.834
       15.69878       30.01532       21.25672        0.417
       15.85135       28.53904       21.55544        0.417
       17.78999       20.71607       21.18220       -0.834
       18.02504       20.48030       22.07964        0.417
       17.86243       21.67022       21.15794        0.417
       24.77908       16.56725       22.19052       -0.834
       23.86316       16.62982       22.46147        0.417
       24.73981       16.30993       21.26939        0.417
       10.72024       11.33289       16.14445       -0.834
        9.99813       11.86078       16.48519        0.417
       10.38954       10.43478       16.16084        0.417
       29.51927       18.53006       20.55413       -0.834
       30.03520       17.72972       20.45667        0.417
       28.78397       18.27522       21.11146        0.417
       13.78023       19.07225       27.00460       -0.834
       13.47557       19.97582       27.08808        0.417
       13.40563       18.76810       26.17792        0.417
       17.08053        5.52071       22.62135       -0.834
       16.96720        4.83726       21.96084        0.417
       17.41792        6.27213       22.13373        0.417
       20.43384       15.59847        7.51673       -0.834
       20.56366       15.04390        6.74742        0.417
       20.39739       14.98552        8.25103        0.417
       10.86508       22.24673        4.75511       -0.834
       11.37075       22.19954        3.94375        0.417
       11.32884       21.66864        5.36089        0.417
       23.84662       14.50839        9.37316       -0.834
       23.56734       14.27751        8.48720        0.417
       23.28037       13.99099        9.94578        0.417
       18.75882       17.60510        6.47529       -0.834
       19.30220       17.97031        5.77702        0.417
       19.37901       17.16556        7.05701        0.417
        8.87127        9.45809       16.12610       -0.834
        8.51860        9.12626       15.30043        0.417
        8.10171        9.74503       16.61771        0.417
       25.73421       10.62529       27.68904       -0.834
       26.30531        9.88226       27.49412        0.417
       25.61765       11.06571       26.84721        0.417
       10.77692       15.17702       27.13041       -0.834
        9.93959       15.47379       26.77400        0.417
       10.67270       15.24838       28.07923        0.417
       16.81339       21.27444       29.80567       -0.834
       17.41499       20.53214       29.74832        0.417
       16.77612       21.62253       28.91478        0.417
       12.01019       26.62014       10.77503       -0.834
       11.37444       26.37140       10.10407        0.417
       12.32334       27.48218       10.50109        0.417
        7.22481        5.58737       17.53287       -0.834
        6.80891        5.73100       16.68280        0.417
        8.10111        5.96048       17.43741        0.417
        5.28585        9.41381        8.81387       -0.834
        5.00817       10.29861        9.05104        0.417
        6.07076        9.54322        8.28150        0.417
       30.30284       11.55930       16.16280       -0.834
       30.85157       12.27535       15.84280        0.417
       30.73154       10.76621       15.84115        0.417
       10.18599       10.02429       22.35403       -0.834
       10.88099        9.44502       22.04154        0.417
        9.81251        9.56648       23.10713        0.417
       11.33544       18.80356        7.57557       -0.834
       12.15625       18.31554        7.64140        0.417
       11.01103       18.84996        8.47492        0.417
       17.48055       13.50421        9.50740       -0.834
       16.83811       12.87833        9.84171        0.417
       17.26210       13.60033        8.58043        0.417
        9.13985       20.21867       27.70042       -0.834
        9.62059       19.54176       27.22406        0.417
        8.27978       19.83185       27.86433        0.417
       30.52266       16.69688       15.89556       -0.834
       29.65245       16.58999       16.27967        0.417
       31.06126       17.03386       16.61151        0.417
       22.90335       17.47141        8.62239       -0.834
       22.61729       16.57812        8.81326        0.417
       23.82380       17.38109        8.37571        0.417
       20.99544       13.75057       18.95713       -0.834
       20.69612       13.88345       19.85656        0.417
       20.80683       12.82999       18.77497        0.417
       24.88784        9.08324       20.21055       -0.834
       24.47868        8.70162       19.43390        0.417
       24.82685       10.02867       20.07391        0.417
       24.98225       11.80990       19.63492       -0.834
       25.85830       12.14523       19.44436        0.417
       24.66874       12.35432       20.35710        0.417
        8.38457        6.47456       21.98675       -0.834
        8.79145        6.73837       22.81203        0.417
        8.01367        7.28292       21.63287        0.417
       22.75799        8.86335       15.44276       -0.834
       22.30158        9.30684       14.72776        0.417
       22.51453        7.94247       15.34827        0.417
        7.17976       18.27950       26.03815       -0.834
        7.93517       18.83812       26.22124        0.417
        6.43246       18.87763       26.04183        0.417
        8.77090        9.27177       19.87158       -0.834
        8.72598        9.54410       20.78812        0.417
        9.70370        9.29904       19.65857        0.417
       13.49579        7.72488        5.19215       -0.834
       13.86184        8.60673        5.25973        0.417
       14.25327        7.14433        5.26572        0.417
       22.77388       13.43395       23.73094       -0.834
       22.26204       12.86031       24.30119        0.417
       23.41581       13.84040       24.31314        0.417
        5.11902       21.04929       20.00707       -0.834
        5.96702       21.25830       20.39879        0.417
        4.65903       21.88786       19.96901        0.417
        3.80427       11.83454        9.68291       -0.834
        3.01747       12.35545        9.84363        0.417
        4.34428       11.96888       10.46174        0.417
       11.89403        5.56471       19.40566       -0.834
       12.80434        5.66546       19.68388        0.417
       11.53609        4.89850       19.99241        0.417
       10.21036       25.75325       15.42204       -0.834
        9.71530       24.94073       15.52669        0.417
       10.85901       25.55382       14.74699        0.417
       11.36864       19.49633       16.52496       -0.834
       12.27215       19.77185       16.67984        0.417
       10.92109       20.29200       16.23716        0.417
        7.44514       25.09006       23.97019       -0.834
        7.14181       25.77453       24.56661        0.417
        6.65244       24.60747       23.73572        0.417
       26.06908       11.51609        9.73627       -0.834
       25.48100       11.49797       10.49130        0.417
       25.49320       11.66909        8.98715        0.417
       15.62057       21.06340        5.63493       -0.834
       15.78860       21.99611        5.76928        0.417
       14.66625       20.99187        5.61527        0.417
       26.09869       13.32140       15.48164       -0.834
       26.22321       13.19224       14.54141        0.417
       26.04231       14.27100       15.58805        0.417
       15.52995        7.69120       13.93136       -0.834
       14.84859        8.36155       13.88033        0.417
       16.28197        8.07881       13.48363        0.417
       18.19044       10.25520       17.40453       -0.834
       17.35459       10.68428       17.22157        0.417
       17.95418        9.35498       17.62818        0.417
       20.26747       27.46951       18.47948       -0.834
       19.78959       26.95565       17.82847        0.417
       20.30876       26.90252       19.24958        0.417
       20.19225       10.87390       19.37573       -0.834
       21.05135       10.80406       18.95944        0.417
       19.57059       10.65641       18.68113        0.417
        5.42804       21.44555       11.54808       -0.834
        5.15707       21.63347       10.64948        0.417
        5.62554       20.50894       11.54829        0.417
       18.26246       16.31513       26.14290       -0.834
       18.33263       16.50155       27.07914        0.417
       17.51825       16.84034       25.84873        0.417
        2.29162       11.70963       19.60901       -0.834
        3.24136       11.59668       19.64720        0.417
        2.02418       11.80376       20.52326        0.417
       12.00189        8.21918       21.02713       -0.834
       12.13843        8.69324       20.20686        0.417
       11.65130        7.37010       20.75811        0.417
       17.65752       13.62084       26.07727       -0.834
       17.95575       13.54080       26.98330        0.417
       18.02232       14.45337       25.77720        0.417
       16.37497       24.98550       26.30696       -0.834
       15.76547       24.28737       26.54646        0.417
       15.88063       25.79347       26.44497        0.417
       13.61795       14.50716       27.34109       -0.834
       13.18549       13.66607       27.48865        0.417
       12.91136       15.09780       27.08015        0.417
       19.19407       16.81844       28.70689       -0.834
       19.50582       15.93628       28.90897        0.417
       19.98827       17.31341       28.50568        0.417
       22.98407       14.35561        5.92043       -0.834
       23.83513       13.92396        5.99534        0.417
       23.11303       15.02554        5.24903        0.417
       11.22108       14.94272       23.39943       -0.834
       10.53434       14.60609       22.82385        0.417
       11.01686       14.57303       24.25841        0.417
        9.14299       16.84360       23.38828       -0.834
        8.52438       16.88919       22.65926        0.417
        9.66305       16.05934       23.21304        0.417
       25.16791       18.68127       10.33602       -0.834
       24.29788       19.01258       10.11353        0.417
       25.76450       19.17933        9.77723        0.417
        8.04153       11.69591       22.30419       -0.834
        7.70953       11.63307       23.19977        0.417
        8.75312       11.05681       22.26664        0.417
       14.43869       23.82954       22.44079       -0.834
       13.66073       23.73155       22.98980        0.417
       14.43103       24.74926       22.17569        0.417
        6.95485       19.99893        6.30951       -0.834
        7.59405       20.57337        5.88800        0.417
        6.54647       19.52289        5.58644        0.417
       20.80835       27.27573       10.57706       -0.834
       21.18179       26.62496       11.17142        0.417
       20.52107       27.98689       11.14973        0.417
       15.17645       16.48853        2.75392       -0.834
       15.60957       17.20264        3.22157        0.417
       15.33334       16.67755        1.82878        0.417
       16.46707       14.28951       22.64632       -0.834
       16.35144       15.09697       22.14546        0.417
       15.57761       13.96525       22.78755        0.417
        8.97689       18.54204       20.07083       -0.834
        8.85347       18.80145       19.15776        0.417
        8.09522       18.34053       20.38434        0.417
       27.33351       25.19719       13.31544       -0.834
       27.42978       24.69833       14.12668        0.417
       28.04654       25.83533       13.34008        0.417
       19.31682       25.83210       13.05803       -0.834
       18.98325       26.65801       13.40850        0.417
       20.26813       25.93815       13.05810        0.417
       24.40073       10.14665       23.31781       -0.834
       24.63530       10.16874       22.39006        0.417
       23.89755        9.33868       23.41896        0.417
       16.12301        8.72274       19.50634       -0.834
       16.00367        7.77541       19.57373        0.417
       16.64702        8.95378       20.27332        0.417
        6.74181       11.15675        7.07224       -0.834
        6.59697       11.43094        6.16666        0.417
        7.50022       11.66567        7.35870        0.417
       13.03941        4.80257       10.49394       -0.834
       13.73954        4.15688       10.58951        0.417
       12.64179        4.60179        9.64670        0.417
        7.16508       22.59243       21.09091       -0.834
        6.70213       22.69617       21.92227        0.417
        7.81870       23.29173       21.09131        0.417
       28.04645       21.75168       10.08779       -0.834
       28.72653       21.13173       10.35120        0.417
       28.42779       22.61295       10.25816        0.417
       23.51765       16.49793       15.60515       -0.834
       23.18130       17.20516       16.15552        0.417
       23.01672       15.72717       15.87205        0.417
       17.55768       11.41132        4.02900       -0.834
       17.92708       10.69610        3.51109        0.417
       18.14096       12.15238        3.86518        0.417
       26.63030        8.81201       16.10210       -0.834
       26.05826        9.56065       16.27106        0.417
       27.05774        9.01932       15.27111        0.417
        9.80435       28.56198       15.60521       -0.834
        9.74646       28.74810       14.66806        0.417
        9.20499       27.82824       15.74164        0.417
       18.59884       23.01004       17.30829       -0.834
       18.75503       22.07709       17.45471        0.417
       18.74279       23.13311       16.37001        0.417
       23.26511        9.86117       26.45326       -0.834
       24.04852       10.40679       26.52254        0.417
       23.59786        8.96373       26.44271        0.417
       27.04509       25.53298       17.92680       -0.834
       26.42234       25.14905       18.54406        0.417
       26.53343       26.17954       17.44059        0.417
       25.66821       21.82098       11.98159       -0.834
       25.92083       20.94741       12.28040        0.417
       26.36300       22.07744       11.37518        0.417
       23.41544       27.83550       18.98065       -0.834
       22.85745       27.17389       18.57180        0.417
       22.96444       28.66388       18.81752        0.417
       20.50469       15.48174       24.89278       -0.834
       20.32531       14.54919       24.77271        0.417
       19.68310       15.84331       25.22518        0.417
       16.23286       17.70982       27.30312       -0.834
       15.47702       18.11884       26.88164        0.417
       15.91981       17.46789       28.17473        0.417
       23.27981       21.28599        5.28655       -0.834
       23.45482       21.45437        4.36067        0.417
       23.20481       20.33367        5.34730        0.417
       15.80159        3.53229       17.30145       -0.834
       15.61885        3.28362       16.39536        0.417
       15.11896        3.09700       17.81211        0.417
        5.31054        6.62686       15.31562       -0.834
        4.72666        6.75856       14.56865        0.417
        6.09010        7.14057       15.10437        0.417
       13.72797        6.35927       26.74630       -0.834
       14.09856        7.19957       26.47649        0.417
       14.21001        5.70919       26.23516        0.417
       26.71103        9.27508       24.35502       -0.834
       25.93290        9.77166       24.10173        0.417
       26.50495        8.37013       24.12087        0.417
        7.43907       10.79261       24.91146       -0.834
        6.65429       11.11618       25.35379        0.417
        7.81109       10.15376       25.51949        0.417
        4.26841        7.44093       17.98165       -0.834
        5.05177        7.80435       18.39455        0.417
        4.59151        7.01361       17.18841        0.417
       11.76079       12.24117        7.54830       -0.834
       11.72818       12.48109        6.62223        0.417
       12.69478       12.16694        7.74423        0.417
       23.84251       22.44704        8.16943       -0.834
       24.51515       21.86817        8.52815        0.417
       24.15956       22.66991        7.29419        0.417
        3.94629       18.43162       24.60311       -0.834
        4.35251       19.23978       24.91630        0.417
        3.97119       18.50461       23.64902        0.417
       16.94552        7.92274       27.41073       -0.834
       16.21170        8.02198       26.80419        0.417
       17.39504        8.76740       27.38380        0.417
       14.03210       17.99292        8.16453       -0.834
       14.54213       18.78969        8.31035        0.417
       14.57963       17.45958        7.58834        0.417
       17.79560        5.46132       27.32545       -0.834
       18.63738        5.70288       27.71183        0.417
       17.41198        6.29285       27.04681        0.417
       27.50539       23.17787       15.21365       -0.834
       27.39099       22.74798       16.06120        0.417
       27.26147       22.51120       14.57155        0.417
       25.77021        7.85085       12.85843       -0.834
       26.58830        7.45853       12.55340        0.417
       25.59022        7.41387       13.69082        0.417
       22.84621       23.13579       18.32280       -0.834
       22.18831       23.24102       17.63554        0.417
       22.48073       22.46959       18.90490        0.417
       12.36051       22.06400        2.41202       -0.834
       13.07006       21.59110        2.84692        0.417
       12.17275       21.54738        1.62839        0.417
       18.77450       19.30504       24.28235       -0.834
       18.02815       18.71313       24.18840        0.417
       18.72832       19.60739       25.18937        0.417
        5.23680       13.53280        7.69632       -0.834
        4.34859       13.82425        7.90215        0.417
        5.31556       12.68114        8.12609        0.417
       10.90585       19.00476       22.47117       -0.834
       10.62733       19.05938       21.55702        0.417
       10.28593       18.39748       22.87506        0.417
       14.09590       19.12931        2.02502       -0.834
       15.01724       19.19949        1.77514        0.417
       13.74695       18.43726        1.46330        0.417
       17.16680       23.27435        7.05894       -0.834
       16.45283       23.85095        7.33100        0.417
       17.71653       23.18911        7.83789        0.417
       10.97677        8.97462        8.02654       -0.834
       10.44139        9.31513        8.74323        0.417
       10.79553        9.56103        7.29203        0.417
       29.13811       22.97689       20.80713       -0.834
       29.80245       22.28872       20.84334        0.417
       29.62654       23.77075       20.58929        0.417
       13.43252        2.63921       18.58301       -0.834
       12.58890        2.99618       18.30534        0.417
       13.33419        2.49544       19.52423        0.417
        5.98183       14.15312       18.22822       -0.834
        5.72458       14.87239       18.80503        0.417
        6.13785       13.41605       18.81867        0.417
        4.74813       15.62805       11.43298       -0.834
        4.77361       16.57864       11.54230        0.417
        5.12616       15.47586       10.56686        0.417
       11.94092       10.68100       13.64718       -0.834
       11.79686       10.73896       14.59170        0.417
       12.86114       10.43250       13.55957        0.417
       16.40899       23.02438       18.85347       -0.834
       17.08258       23.14324       18.18386        0.417
       16.61259       23.68240       19.51814        0.417
       18.99440       13.27959       23.12298       -0.834
       18.63826       12.65269       23.75257        0.417
       18.22866       13.74981       22.79318        0.417
       23.68857       22.56211       13.84148       -0.834
       23.25889       21.70821       13.79181        0.417
       24.44150       22.48635       13.25530        0.417
        2.42085       13.25172       15.77285       -0.834
        3.20333       13.78907       15.64949        0.417
        2.74075       12.35025       15.73733        0.417
       17.73493       22.63139       11.63952       -0.834
       18.09410       22.62648       10.75228        0.417
       18.15262       21.88638       12.07164        0.417
       14.52878       10.05542       12.47650       -0.834
       14.02854        9.79080       11.70451        0.417
       15.31044       10.47937       12.12224        0.417
       13.41811       24.13559        5.38642       -0.834
       13.14643       24.90380        5.88870        0.417
       12.72391       23.49363        5.53543        0.417
       26.26239       24.68075        8.96107       -0.834
       25.93823       24.58900        8.06512        0.417
       25.56867       25.15450        9.41993        0.417
        7.38609       27.26859       14.95089       -0.834
        6.53556       27.64653       14.72733        0.417
        7.79195       27.07439       14.10602        0.417
        8.38801       12.01710       19.23963       -0.834
        8.51603       12.56610       18.46604        0.417
        8.58353       11.12959       18.93909        0.417
       21.04523        6.71838       14.95249       -0.834
       20.45141        6.23556       14.37760        0.417
       20.68893        7.60653       14.97419        0.417
        3.90020       19.45974       22.21139       -0.834
        4.47735       19.86360       21.56330        0.417
        3.02474       19.76933       21.97912        0.417
        9.39923       13.09537       24.79066       -0.834
        8.86434       12.30377       24.84968        0.417
        9.08599       13.65047       25.50479        0.417
        8.61808       27.35601        9.83231       -0.834
        9.12375       27.53448        9.03942        0.417
        9.08022       27.83025       10.52351        0.417
        2.66201       14.67532       21.42776       -0.834
        2.09101       14.86739       20.68391        0.417
        3.40068       15.27527       21.32447        0.417
       28.91104       20.36609       14.83505       -0.834
       28.94032       19.52622       14.37679        0.417
       29.08151       20.14586       15.75084        0.417
       16.71980       21.88151       27.24813       -0.834
       16.88566       20.93941       27.21372        0.417
       16.23879       22.07009       26.44234        0.417
        9.62731       23.01485       11.50073       -0.834
        9.67909       23.59794       10.74339        0.417
       10.53374       22.75574       11.66652        0.417
       27.43989       14.24163       21.31044       -0.834
       27.92421       14.46331       22.10576        0.417
       27.99741       13.60814       20.85868        0.417
       21.77356       11.91582       30.35167       -0.834
       22.37903       12.33543       30.96286        0.417
       21.74776       12.50441       29.59727        0.417
       30.58085       23.24627       15.48283       -0.834
       29.65743       23.25347       15.23089        0.417
       30.59208       22.82318       16.34137        0.417
       21.96008       25.52684        7.51078       -0.834
       21.10916       25.84609        7.21036        0.417
       22.00269       25.78682        8.43101        0.417
        8.26568       17.96748       11.61129       -0.834
        8.60574       18.78570       11.24920        0.417
        7.31929       18.02124       11.47836        0.417
       17.43367       18.56948       11.13499       -0.834
       17.93546       17.79015       10.89604        0.417
       18.04585       19.29537       11.01442        0.417
       24.80446        8.81339        7.86238       -0.834
       25.71731        9.09964        7.89415        0.417
       24.33766        9.54448        7.45760        0.417
       22.29709       11.23877       17.77083       -0.834
       22.59577       10.93974       16.91199        0.417
       22.96566       11.86272       18.05356        0.417
       15.65617       23.76097        3.70131       -0.834
       14.84944       23.69295        4.21199        0.417
       16.22040       24.33507        4.21927        0.417
       18.89359       16.24805       10.70175       -0.834
       19.54007       16.84697       11.07539        0.417
       19.38830       15.45214       10.50679        0.417
       23.18457       20.51436       10.49965       -0.834
       23.42434       20.23756       11.38403        0.417
       22.95569       21.43925       10.59143        0.417
       20.07348        8.62051        5.77344       -0.834
       20.03327        9.54820        6.00584        0.417
       19.23101        8.26537        6.05689        0.417