%Nproc=32
%Mem=120Gb
%chk=temp.chk
#p cam-b3lyp/6-31+G(d,p) nosymm charge Freq 

Calculation for S0 with freq for abs spect

0  1
 C         16.32114       16.08035       15.27037
 C         16.29287       17.84176       16.99183
 C         16.71274       17.01299       17.97598
 C         16.94074       15.62599       17.74244
 N         16.78894       15.25857       16.36324
 H         15.95670       18.83781       17.23754
 H         16.82382       17.33965       19.01945
 O         17.25256       14.81856       18.61304
 O         16.09449       15.70473       14.13070
 N         16.11303       17.41813       15.70371
 H         15.89759       18.08399       15.05004
 H         17.16008       14.31234       16.05091
 O         15.58477       12.99126       19.90989
 H         15.41617       13.32736       20.79014
 H         16.10674       13.67390       19.48825
 O         18.21452       18.08227       12.50992
 H         18.71920       17.64482       13.19561
 H         17.73029       17.37665       12.08114
 O         16.70602       15.32032       11.66315
 H         16.66023       15.44806       12.61068
 H         17.17380       14.49225       11.55496
 O         20.41808       15.62284       16.79181
 H         21.17775       15.54212       17.36854
 H         20.03844       14.74440       16.77062
 O         20.18582       17.01857       14.50892
 H         20.27076       16.49300       15.30440
 H         21.02063       16.90347       14.05496
 O         15.32868       19.31325       13.74600
 H         15.63669       20.11949       13.33207
 H         15.02261       18.77173       13.01846
 O         14.37786       13.09479       16.59936
 H         14.52761       13.00292       15.65842
 H         15.00694       12.49619       17.00207
 O         18.78383       20.48452       13.29710
 H         18.45223       19.72134       12.82400
 H         18.83980       20.19641       14.20819
 O         13.70553       20.04653       15.75108
 H         14.42534       20.09786       15.12222
 H         13.54356       19.10881       15.85442
 O         13.15705       17.44706       16.65803
 H         13.10317       17.77254       17.55658
 H         13.36748       16.51797       16.75153
 O         15.67562       20.02216       20.63439
 H         15.65874       19.09905       20.38179
 H         15.50040       20.49659       19.82171
 O         13.62599       14.88360       18.38036
 H         12.72248       15.06978       18.12495
 H         13.94767       14.28548       17.70582
 O         14.63864       16.88969       21.05183
 H         14.01123       16.17178       20.96701
 H         15.13996       16.67850       21.83942
 O         16.44608       21.62161       15.15876
 H         17.15141       21.20780       15.65627
 H         16.61014       21.36526       14.25123
 O         19.10761       13.33974       15.73867
 H         19.31263       13.02404       14.85860
 H         18.96754       12.54432       16.25240
 O         18.76245       20.55693       16.21022
 H         19.11994       21.32362       16.65813
 H         18.85914       19.84362       16.84115
 O         19.81510       18.44729       17.67744
 H         19.83229       18.11167       18.57371
 H         19.55328       17.69623       17.14492
 O         14.30432       12.89983       13.80957
 H         15.14798       12.69424       13.40684
 H         14.05339       13.73990       13.42546
 O         12.99151       19.05383       19.84396
 H         13.58112       18.40335       20.22535
 H         12.11377       18.71881       20.02720
 O         19.37922       17.40635       20.14151
 H         20.20835       17.54724       20.59859
 H         19.05219       16.57618       20.48807
 O         19.23903       12.96802       19.27516
 H         19.02408       12.08841       18.96480
 H         18.58401       13.53357       18.86610
 
       20.46818        5.39859       23.11160       -0.834
       21.38413        5.52594       22.86451        0.417
       20.29646        4.47487       22.92864        0.417
       22.17111       14.83537       22.03993       -0.834
       21.96628       15.19453       22.90323        0.417
       21.38064       14.36009       21.78402        0.417
       13.82965       14.56766       28.52347       -0.834
       13.84802       15.51448       28.38406        0.417
       14.40392       14.42467       29.27580        0.417
       26.81655        9.04767       13.29262       -0.834
       26.96096        9.02034       12.34677        0.417
       27.69263        9.14215       13.66651        0.417
        4.76049       21.23826       23.07799       -0.834
        5.19611       21.33773       23.92450        0.417
        3.82617       21.25929       23.28496        0.417
       26.70295       24.50894       24.61849       -0.834
       26.31077       24.01542       23.89817        0.417
       27.28247       25.13899       24.19021        0.417
        8.03029        7.24758       17.41828       -0.834
        7.33431        7.78574       17.79543        0.417
        8.64746        7.11465       18.13776        0.417
       22.17570       10.95605        6.86277       -0.834
       23.07457       10.94127        6.53408        0.417
       21.71378       10.31086        6.32742        0.417
       19.76498        4.10611       12.64041       -0.834
       20.59347        3.89051       13.06860        0.417
       19.11147        3.58357       13.10529        0.417
        6.97081       18.02291       22.74489       -0.834
        6.46647       18.42359       22.03684        0.417
        7.74083       18.58380       22.83823        0.417
       12.09442       27.12147       22.33967       -0.834
       12.68454       26.55824       21.83891        0.417
       11.43422       26.52451       22.69182        0.417
        6.81128       25.54448       16.72717       -0.834
        7.50324       24.92582       16.96101        0.417
        7.14100       25.98946       15.94647        0.417
       21.06400        9.03940       11.61926       -0.834
       21.82244        8.61594       12.02136        0.417
       20.87996        8.51330       10.84107        0.417
        5.57625       14.38906       26.14092       -0.834
        6.29104       14.12391       25.56212        0.417
        5.97085       15.03124       26.73094        0.417
       21.07421       22.55106       11.82752       -0.834
       20.17720       22.36765       11.54830        0.417
       21.26921       23.41229       11.45808        0.417
       16.56390       22.48191       24.64778       -0.834
       15.68165       22.28355       24.33389        0.417
       16.42616       22.94475       25.47425        0.417
       21.27176       27.65291       15.48492       -0.834
       21.18316       27.12496       16.27843        0.417
       21.85688       28.36755       15.73624        0.417
        9.07487       25.87708        8.94385       -0.834
        9.39282       25.89392        8.04116        0.417
        9.19231       26.77411        9.25646        0.417
       17.87499       24.45456       16.08784       -0.834
       17.62054       24.30301       16.99807        0.417
       17.07994       24.28011       15.58417        0.417
        7.80858       16.79284       15.88995       -0.834
        8.62107       17.15855       15.54018        0.417
        7.93556       15.84492       15.85055        0.417
       16.12551       25.76048        5.78141       -0.834
       16.11970       25.06137        5.12762        0.417
       15.24313       25.74960        6.15223        0.417
       12.69866       14.80064       23.65106       -0.834
       13.21024       14.52653       22.88989        0.417
       12.56675       13.99677       24.15369        0.417
        6.16302       22.82683       18.44419       -0.834
        5.43716       22.21239       18.33549        0.417
        6.78886       22.58195       17.76258        0.417
       17.92099        9.81910       10.64679       -0.834
       18.32228        8.98278       10.88294        0.417
       18.62540       10.31340       10.22760        0.417
        6.79041       16.70312       18.62962       -0.834
        7.39744       17.33405       18.24276        0.417
        5.99772       17.20984       18.80601        0.417
       20.27728       21.63618       25.89786       -0.834
       20.63092       21.28248       25.08173        0.417
       20.67025       21.09622       26.58361        0.417
        8.69952       15.18105       10.57341       -0.834
        9.15010       15.68664        9.89696        0.417
        7.76964       15.34444       10.41572        0.417
        4.86278       11.14677       18.39375       -0.834
        4.99765       11.18196       17.44675        0.417
        5.19757       11.98396       18.71511        0.417
       20.87253       22.07320        5.13896       -0.834
       20.68096       22.83440        4.59113        0.417
       21.61839       21.65181        4.71194        0.417
       14.77412       30.45977       15.09676       -0.834
       15.44477       30.33943       14.42447        0.417
       15.00995       31.28191       15.52653        0.417
        8.11888        7.62490       25.76191       -0.834
        7.55834        6.84970       25.79483        0.417
        9.00564        7.27617       25.67099        0.417
       19.59631        9.17701       14.24531       -0.834
       19.94728        8.28850       14.30533        0.417
       20.02168        9.55148       13.47391        0.417
       26.26095       17.34702       17.10528       -0.834
       26.74584       17.90074       17.71724        0.417
       26.24026       17.85003       16.29116        0.417
       15.25305        4.08931       12.30943       -0.834
       15.12284        4.94627       11.90335        0.417
       14.45947        3.94489       12.82480        0.417
       18.48442        7.01535       11.57611       -0.834
       18.97735        6.23417       11.82716        0.417
       17.66794        6.67629       11.20919        0.417
       20.82233        9.19521       19.47172       -0.834
       20.81105        8.24357       19.36935        0.417
       20.93614        9.53089       18.58256        0.417
       17.56964        2.62331       13.27392       -0.834
       16.81503        3.14500       13.00075        0.417
       17.22881        2.04908       13.95972        0.417
       27.35246       23.61627       16.30020       -0.834
       27.37071       22.66101       16.35838        0.417
       27.18326       23.79720       15.37561        0.417
        4.05126       20.01130       10.58327       -0.834
        4.07520       19.38949       11.31060        0.417
        4.90981       20.43417       10.60071        0.417
       13.70340       10.13793       14.32361       -0.834
       13.98111       11.03222       14.12523        0.417
       14.48185        9.60408       14.16471        0.417
        9.41863       13.82922       27.51183       -0.834
        9.37452       14.60087       28.07649        0.417
       10.04585       13.25034       27.94509        0.417
       21.46601       18.45575        6.74773       -0.834
       21.30859       18.01748        7.58402        0.417
       21.27072       19.37702        6.91910        0.417
        6.49947       10.20251       12.56630       -0.834
        5.69141       10.55402       12.19252        0.417
        7.19667       10.71009       12.15097        0.417
       21.10897       27.66423       21.14712       -0.834
       20.48236       27.01029       21.45687        0.417
       20.57797       28.44095       20.97113        0.417
       13.24773       20.25608        2.81653       -0.834
       12.99440       20.17021        3.73560        0.417
       14.15355       20.56416        2.84505        0.417
       21.89801       20.14671       17.04866       -0.834
       21.62250       20.74282       16.35225        0.417
       21.15495       19.55478       17.16581        0.417
        9.52502       25.67159       19.66488       -0.834
       10.11975       25.18411       20.23487        0.417
        8.70579       25.17739       19.69399        0.417
       23.09535       26.27567       24.61333       -0.834
       23.66694       26.73346       23.99693        0.417
       23.52419       26.38179       25.46249        0.417
       11.47372       18.37835       30.02902       -0.834
       12.10413       19.08780       30.15354        0.417
       11.20333       18.45544       29.11406        0.417
       16.92406       19.40235        9.93043       -0.834
       16.86081       18.97361        9.07696        0.417
       17.62072       20.04987        9.82267        0.417
       21.82422       13.71248       28.97269       -0.834
       21.06598       13.93415       29.51321        0.417
       22.49363       13.43789       29.59936        0.417
       28.66959       21.59963       12.25039       -0.834
       29.52389       21.36857       11.88567        0.417
       28.07331       20.93569       11.90419        0.417
        9.64356       22.13545       24.76495       -0.834
        9.05487       22.61799       24.18457        0.417
       10.46301       22.62955       24.74036        0.417
        4.35638       17.96694       18.25816       -0.834
        3.71998       17.58622       18.86336        0.417
        4.30680       17.41384       17.47850        0.417
       23.98597       21.16490       10.26345       -0.834
       23.98235       20.54690        9.53249        0.417
       23.24528       21.74592       10.09016        0.417
       10.59316        5.13277       15.65312       -0.834
       10.12397        5.96640       15.61915        0.417
       10.15260        4.58285       15.00526        0.417
       21.56334       23.75922       27.52683       -0.834
       21.12746       23.11581       26.96802        0.417
       22.49395       23.66047       27.32573        0.417
       13.62356       23.48053       18.39026       -0.834
       13.10263       23.31688       17.60408        0.417
       13.38865       24.37053       18.65285        0.417
        7.48254       26.90517       13.93625       -0.834
        8.03753       27.61109       14.26777        0.417
        7.42102       27.06999       12.99536        0.417
       25.20929       14.59752       23.27705       -0.834
       24.92548       13.77031       23.66617        0.417
       26.13417       14.46120       23.07149        0.417
       19.77455       24.45573       21.83449       -0.834
       19.50022       24.44923       22.75152        0.417
       20.24816       23.63185       21.71983        0.417
       19.24372       29.16375       19.79151       -0.834
       18.63288       29.45057       20.47036        0.417
       18.69422       28.71742       19.14724        0.417
       11.26944        6.70754       24.94898       -0.834
       11.85064        7.37295       25.31726        0.417
       10.87084        6.28838       25.71164        0.417
       19.46107       11.94914        2.97827       -0.834
       18.87559       12.61195        3.34450        0.417
       19.14544       11.12229        3.34287        0.417
       29.37787       17.33066       21.79444       -0.834
       29.94336       18.06273       22.04046        0.417
       29.54092       16.66602       22.46369        0.417
       22.41906       10.79445       14.13221       -0.834
       23.07424       10.11895       13.95708        0.417
       22.24098       10.71876       15.06965        0.417
       18.75485       13.20430       23.69571       -0.834
       19.04795       13.40229       24.58516        0.417
       19.10537       12.33188       23.51614        0.417
       15.79808       21.57520        2.92572       -0.834
       15.91864       21.37536        1.99741        0.417
       16.10084       22.47855        3.01804        0.417
        8.52995       14.31769        4.62199       -0.834
        8.02512       14.85853        4.01465        0.417
        7.98838       13.54025        4.75806        0.417
       10.46313        4.54696       10.97159       -0.834
       10.43824        5.47685       10.74592        0.417
       10.12849        4.10201       10.19296        0.417
       20.61159        4.55183       10.11513       -0.834
       19.76760        4.66043        9.67681        0.417
       20.39070        4.46101       11.04205        0.417
        6.04266       10.92680       21.44602       -0.834
        6.64804       11.15135       20.73938        0.417
        6.47853       10.21811       21.91931        0.417
        8.19747       22.21501       16.56674       -0.834
        8.55781       22.89531       15.99790        0.417
        8.24981       21.41384       16.04557        0.417
       21.01337       21.80689       29.68931       -0.834
       21.43555       22.22437       28.93850        0.417
       21.21305       20.87604       29.58995        0.417
       16.24841        9.74088       22.95155       -0.834
       15.83213       10.56977       23.18792        0.417
       17.18173        9.88903       23.10390        0.417
       18.78159        6.89913       25.19094       -0.834
       19.31477        6.66565       25.95083        0.417
       18.98887        6.23075       24.53784        0.417
       23.90865        5.39506       12.32980       -0.834
       24.58202        5.59820       12.97906        0.417
       23.85388        4.43943       12.33179        0.417
       22.95406       25.43420       13.43026       -0.834
       22.37873       26.19396       13.34105        0.417
       23.58320       25.52422       12.71450        0.417
       23.23424       23.15142       14.75005       -0.834
       22.36298       22.76696       14.65347        0.417
       23.14755       24.03515       14.39265        0.417
       15.07033        1.66348       16.70917       -0.834
       14.51774        1.72999       15.93043        0.417
       14.82048        0.83110       17.11036        0.417
       23.95632       27.94177       20.95274       -0.834
       23.04858       28.02410       21.24506        0.417
       23.90007       27.45877       20.12825        0.417
        2.22464       14.52634       20.06680       -0.834
        3.01964       14.18244       20.47416        0.417
        1.55959       13.85950       20.23787        0.417
       30.65740       16.85454       15.31412       -0.834
       29.85526       16.66125       14.82889        0.417
       30.68047       17.80989       15.36884        0.417
       15.70987       14.80647       22.55527       -0.834
       15.46975       13.93051       22.85737        0.417
       16.31545       15.13234       23.22108        0.417
       17.29332        9.15980       25.86010       -0.834
       18.19435        9.46088       25.97725        0.417
       17.38007        8.26310       25.53663        0.417
       29.39464        9.40351       14.59432       -0.834
       30.18211        9.12485       14.12691        0.417
       29.46992        8.99451       15.45646        0.417
       11.33079       29.31910       21.22995       -0.834
       12.14573       29.77155       21.44766        0.417
       11.45346       28.43016       21.56306        0.417
       19.86741       12.16927       13.30764       -0.834
       19.88831       11.49249       13.98423        0.417
       20.71865       12.10247       12.87501        0.417
       13.07862        9.99625        5.50687       -0.834
       13.05968       10.44688        4.66259        0.417
       13.03831        9.06635        5.28353        0.417
       17.14714        9.96750       14.29314       -0.834
       16.76323        9.12166       14.06204        0.417
       18.08377        9.85901       14.12828        0.417
       21.00741        7.99075        9.02207       -0.834
       21.35822        7.10031        9.03852        0.417
       21.25030        8.32849        8.15999        0.417
        4.80954        7.01522       16.24954       -0.834
        5.18259        7.47869       16.99937        0.417
        4.67860        7.69480       15.58828        0.417
        8.37628       17.56545        3.39929       -0.834
        8.83199       17.39761        4.22415        0.417
        7.88189       18.36966        3.55757        0.417
       18.80555       13.26980       10.90247       -0.834
       19.25797       13.17002       11.74008        0.417
       19.17470       12.58316       10.34704        0.417
       18.00365        6.03958       15.78502       -0.834
       17.24074        5.52917       16.05645        0.417
       18.04600        6.76046       16.41333        0.417
       24.55369       26.40985       11.39915       -0.834
       24.81772       25.59368       10.97448        0.417
       25.37677       26.86491       11.57718        0.417
       13.52803       27.87329       26.56997       -0.834
       13.66409       27.85060       25.62276        0.417
       13.75008       26.99035       26.86553        0.417
       22.50348       13.35551        7.67661       -0.834
       22.24439       12.52077        7.28634        0.417
       21.73818       13.91978        7.56638        0.417
       18.07526       21.67890        8.99586       -0.834
       17.12674       21.76692        8.90210        0.417
       18.40314       22.57790        8.97283        0.417
       21.97568       11.89856       26.50485       -0.834
       22.64970       11.49206       27.04954        0.417
       21.57213       12.55517       27.07251        0.417
       15.26228       21.42029       18.14404       -0.834
       14.45903       21.93850       18.19384        0.417
       15.52831       21.47756       17.22634        0.417
       16.97237        8.86465       20.28778       -0.834
       17.24860        9.23905       21.12429        0.417
       16.23093        9.40556       20.01590        0.417
       18.32545       18.09087       24.00455       -0.834
       18.10968       18.86394       23.48299        0.417
       19.10844       17.73108       23.58778        0.417
       23.19300       23.46554       24.41294       -0.834
       23.99105       23.74685       23.96548        0.417
       22.79633       24.27726       24.72917        0.417
        2.04083       17.14404       19.78853       -0.834
        1.89652       16.22918       19.54679        0.417
        2.14196       17.12771       20.74023        0.417
        6.77336       22.10339        7.88849       -0.834
        7.64236       21.77525        8.11957        0.417
        6.80341       23.03535        8.10479        0.417
       14.43514        5.77078        6.69375       -0.834
       14.05687        5.41221        5.89089        0.417
       13.81049        5.53480        7.37957        0.417
       27.41385       23.54367       13.46794       -0.834
       26.53053       23.23957       13.25935        0.417
       27.99217       22.90152       13.05633        0.417
        5.62073        8.45711       18.46625       -0.834
        5.28530        7.94139       19.19956        0.417
        5.21273        9.31666       18.57087        0.417
       17.12258       21.02764       26.94533       -0.834
       17.16458       21.48170       26.10373        0.417
       17.58596       20.20337       26.79670        0.417
        9.20360       21.79256       12.58920       -0.834
        9.13135       22.41985       11.86981        0.417
        9.58024       21.00944       12.18784        0.417
       29.37920        8.99901       17.84495       -0.834
       28.95289        9.84122       17.68631        0.417
       30.02677        9.18226       18.52561        0.417
       10.57973       13.39294       18.73260       -0.834
       10.85539       12.96374       17.92264        0.417
       10.63127       14.32871       18.53789        0.417
       19.42556       14.15365       30.47060       -0.834
       19.57840       14.05562       31.41042        0.417
       18.88647       14.94108       30.39599        0.417
       18.76872       15.07574        2.07399       -0.834
       19.40300       15.78536        1.97221        0.417
       18.11444       15.42374        2.67983        0.417
       13.59239        4.19246       16.12481       -0.834
       14.40569        4.38010       16.59338        0.417
       12.90030        4.47480       16.72276        0.417
       10.13065       12.63345       21.23885       -0.834
       10.03472       12.76617       20.29576        0.417
        9.53481       11.91225       21.44153        0.417
       13.88137       25.60752       20.94956       -0.834
       14.68260       25.37805       21.42031        0.417
       14.18736       25.98754       20.12605        0.417
       23.41392       16.48327       15.81767       -0.834
       23.82978       15.75963       16.28633        0.417
       22.94091       16.06353       15.09912        0.417
       25.47674       23.15733       22.61629       -0.834
       25.03668       23.32270       21.78248        0.417
       25.74230       22.23890       22.56948        0.417
       15.19158       13.22014        5.78571       -0.834
       15.71148       13.93373        6.15548        0.417
       15.30448       12.49658        6.40210        0.417
       24.44998       12.17999       24.82827       -0.834
       23.64532       12.26327       25.33995        0.417
       24.36409       11.33792       24.38131        0.417
        8.05983       20.15723       19.69300       -0.834
        8.01341       21.07669       19.43096        0.417
        7.24970       20.00516       20.17961        0.417
       28.68712       15.87194       13.70561       -0.834
       28.39730       15.12666       14.23171        0.417
       28.77513       15.52052       12.81962        0.417
        7.92461       14.04789       24.85186       -0.834
        8.41468       14.24343       25.65050        0.417
        8.58978       14.01397       24.16437        0.417
       18.94284       18.64989        2.78789       -0.834
       18.58126       19.28000        3.41115        0.417
       18.22559       18.47694        2.17807        0.417
       12.96939       16.81684       13.02442       -0.834
       13.36697       17.42158       12.39795        0.417
       13.05572       15.95599       12.61489        0.417
       14.90617       22.14854        5.92936       -0.834
       15.28553       21.66662        5.19446        0.417
       14.18193       22.64206        5.54445        0.417
        9.29972        7.35811        8.70380       -0.834
        9.51903        8.21817        8.34541        0.417
        9.72889        7.33801        9.55916        0.417
        3.43403       10.26125       22.58297       -0.834
        4.12163       10.80076       22.19262        0.417
        3.27846        9.56892       21.94054        0.417
       20.01965       29.53560       10.47142       -0.834
       20.46161       29.02885        9.79015        0.417
       20.56065       30.31808       10.57754        0.417
       15.75452        6.61993       10.77564       -0.834
       15.05841        6.59936       10.11894        0.417
       15.58478        7.41529       11.28045        0.417
       21.10833       29.39782       24.71268       -0.834
       20.78490       28.50399       24.60003        0.417
       20.44208       29.94784       24.30060        0.417
       20.25857       11.24144        9.78998       -0.834
       20.95463       11.04113        9.16420        0.417
       20.58582       10.91134       10.62675        0.417
       15.81221       32.18363       17.26077       -0.834
       16.21073       31.32051       17.14930        0.417
       16.20752       32.52892       18.06124        0.417
       16.41296       25.15727       21.94622       -0.834
       17.24642       24.72482       22.13213        0.417
       16.25619       25.71416       22.70879        0.417
       26.00810       18.12318       28.16516       -0.834
       25.91830       18.77323       27.46832        0.417
       26.04147       17.28337       27.70709        0.417
       17.62179        7.78602       29.18668       -0.834
       17.23949        7.04532       28.71611        0.417
       17.77351        8.44700       28.51116        0.417
       17.88591       20.51407        4.58435       -0.834
       17.05727       20.71301        4.14846        0.417
       18.29910       21.36750        4.71536        0.417
       26.88224       14.65643       16.58627       -0.834
       27.54481       14.27816       17.16433        0.417
       26.82484       15.57341       16.85474        0.417
       24.32785       17.11147       19.11693       -0.834
       24.17215       18.05057       19.21732        0.417
       24.78051       17.03167       18.27731        0.417
       22.53704       14.92515       18.99999       -0.834
       22.20732       14.90045       19.89827        0.417
       23.10844       15.69269       18.97510        0.417
       13.26852       20.67603        8.05379       -0.834
       13.31389       19.90413        8.61801        0.417
       13.21326       21.41408        8.66081        0.417
       14.19327       28.42892       11.58583       -0.834
       14.14129       28.98034       10.80514        0.417
       13.99408       27.54733       11.27065        0.417
       16.71518       12.14059       12.29928       -0.834
       17.09549       11.57534       12.97164        0.417
       17.41032       12.24115       11.64897        0.417
       20.03281       22.84606       17.33423       -0.834
       20.87492       23.29547       17.26271        0.417
       19.41438       23.42226       16.88505        0.417
        2.30193       15.02748       14.39815       -0.834
        2.69595       15.79523       14.81233        0.417
        2.29209       14.36214       15.08623        0.417
       25.36777       18.89330       24.02069       -0.834