%Nproc=32
%Mem=120Gb
%chk=temp.chk
#p cam-b3lyp/6-31+G(d,p) nosymm charge Freq 

Calculation for S0 with freq for abs spect

0  1
 C         16.10819       17.46366       17.68106
 C         16.68511       17.20863       15.30514
 C         16.92868       15.91337       15.42825
 C         16.87272       15.31592       16.73224
 N         16.43812       16.12954       17.76743
 H         16.70467       17.83500       14.48773
 H         17.31352       15.34474       14.61503
 O         17.07582       14.13568       16.94585
 O         15.83903       18.16897       18.61629
 N         16.32970       17.98212       16.39770
 H         16.20611       19.01687       16.29133
 H         16.34242       15.66226       18.66482
 O         15.17841       16.10687       11.83444
 H         16.03093       16.44168       11.55635
 H         14.58467       16.33972       11.12065
 O         12.31333       17.68189       17.51397
 H         11.44088       17.93208       17.20989
 H         12.56402       18.37718       18.12221
 O         13.92316       21.19779       16.63549
 H         14.18828       20.51594       16.01821
 H         13.03865       20.94840       16.90322
 O         13.32436       15.45291       16.44678
 H         13.56127       15.73750       15.56410
 H         12.95516       16.23360       16.85964
 O         18.40305       11.47361       17.30923
 H         17.80773       12.18111       17.06172
 H         19.11416       11.52381       16.67045
 O         20.84607       14.27579       16.22741
 H         21.62932       14.05209       16.73011
 H         20.51746       15.07544       16.63828
 O         13.54191       19.33047       19.22132
 H         14.34892       18.84846       19.04069
 H         13.81024       20.03549       19.81054
 O         13.94822       19.22717       14.44386
 H         13.91424       18.27305       14.51277
 H         13.44059       19.42924       13.65790
 O         17.43464       18.25757       20.51246
 H         16.88281       18.20248       19.73228
 H         18.28376       18.55459       20.18534
 O         13.77640       16.36789       14.14282
 H         14.22999       16.17810       13.32156
 H         12.85532       16.44855       13.89517
 O         19.09824       12.82377       14.72910
 H         18.71538       13.20317       13.93807
 H         19.49319       13.56709       15.18487
 O         20.17282       18.31886       19.30069
 H         20.65405       17.82187       18.63913
 H         20.76368       19.03230       19.54175
 O         12.20923       15.92005       19.73186
 H         12.74828       16.24942       19.01271
 H         12.73985       16.06473       20.51528
 O         18.59492       13.42062       19.59023
 H         18.52847       13.54773       18.64383
 H         19.45947       13.03081       19.71990
 O         21.09002       17.26134       16.55274
 H         20.74324       18.15226       16.50544
 H         21.93041       17.30640       16.09672
 O         14.07062       13.43586       18.34076
 H         14.06332       14.07801       17.63095
 H         14.41927       13.91384       19.09322
 O         16.09032       13.88039       20.57288
 H         16.23381       14.65820       21.11199
 H         16.96722       13.52695       20.42331
 O         16.79390       16.16228       22.15280
 H         17.03313       16.80136       21.48156
 H         17.60653       16.00283       22.63284
 O         16.51994       21.02975       17.07231
 H         15.60603       21.28369       17.20082
 H         16.92980       21.16809       17.92619
 
       13.82246       18.71397       23.94904       -0.834
       13.53224       19.42715       23.38038        0.417
       13.83507       17.94385       23.38072        0.417
       17.76060       16.93940       10.72948       -0.834
       18.07630       16.90732        9.82641        0.417
       18.53340       16.74786       11.26082        0.417
       14.76156       10.74895       18.05613       -0.834
       14.83230       11.69471       17.92667        0.417
       13.82198       10.58827       18.14331        0.417
       20.66183       13.72625       27.79395       -0.834
       21.57191       13.51509       28.00234        0.417
       20.71914       14.33124       27.05440        0.417
       27.45826       13.28909       25.58137       -0.834
       27.78836       12.56536       26.11380        0.417
       27.78810       14.07604       26.01513        0.417
       16.76255        8.67684        6.89650       -0.834
       16.11659        8.80168        7.59176        0.417
       16.34068        8.07633        6.28197        0.417
       19.86371        1.77931       15.19676       -0.834
       19.50563        2.66269       15.28420        0.417
       20.59890        1.87718       14.59166        0.417
        4.92325       24.11481       12.54220       -0.834
        4.92063       25.02038       12.23210        0.417
        5.09271       24.18338       13.48178        0.417
       20.57545        3.37616       12.06563       -0.834
       20.68989        2.73769       11.36172        0.417
       19.67643        3.68826       11.96274        0.417
       25.81354       15.73375       22.74555       -0.834
       26.16846       16.44470       23.27923        0.417
       26.03299       14.93769       23.22966        0.417
       12.69794       29.45169       21.87865       -0.834
       12.03732       29.51311       21.18869        0.417
       13.33193       30.13644       21.66552        0.417
       20.11876        9.96494       23.39762       -0.834
       20.24758       10.18042       24.32131        0.417
       19.55247       10.66149       23.06541        0.417
        6.20081       21.96231       10.14633       -0.834
        6.82164       21.35476        9.74422        0.417
        5.38401       21.82291        9.66713        0.417
        7.85850       21.87076       23.60646       -0.834
        8.51590       21.35723       23.13706        0.417
        7.06332       21.78008       23.08138        0.417
       14.81462        8.55694       24.69807       -0.834
       15.67804        8.14646       24.65078        0.417
       14.27432        7.92538       25.17288        0.417
       11.25930        2.85832       15.31748       -0.834
       10.52963        3.20672       14.80520        0.417
       11.25185        3.37144       16.12549        0.417
       19.27290       12.96963       24.74116       -0.834
       18.45768       12.49981       24.56532        0.417
       19.76748       12.38532       25.31579        0.417
       12.53940        8.65839       14.64779       -0.834
       12.01903        8.88609       15.41824        0.417
       12.59451        7.70302       14.66920        0.417
       17.89056        3.92200       11.65009       -0.834
       17.31866        4.60800       11.30575        0.417
       17.34545        3.13520       11.65509        0.417
       23.51749       10.23709        5.79983       -0.834
       22.67600       10.04095        6.21173        0.417
       24.01979       10.68403        6.48113        0.417
        8.55017       26.67706       22.51322       -0.834
        8.75072       26.12667       23.27024        0.417
        8.65891       26.09724       21.75942        0.417
        6.98326        5.83383       20.38835       -0.834
        6.41074        6.57662       20.57997        0.417
        7.62279        5.83377       21.10056        0.417
       27.62679       14.04883       12.04699       -0.834
       27.26267       14.82139       11.61479        0.417
       28.27512       13.71131       11.42895        0.417
       28.29077       15.36298       18.61873       -0.834
       29.15963       15.46154       19.00807        0.417
       28.43777       14.83408       17.83458        0.417
        8.17472       13.35073       19.81661       -0.834
        8.80766       12.71991       20.15966        0.417
        8.46312       14.19407       20.16565        0.417
       20.04755        6.79967       18.38675       -0.834
       19.44729        7.16374       17.73607        0.417
       20.14958        7.49616       19.03537        0.417
       12.98764       16.03719       26.89881       -0.834
       12.87965       15.12429       26.63200        0.417
       13.93485       16.17497       26.90498        0.417
       25.95433       19.79706        9.84187       -0.834
       26.57218       20.15299        9.20327        0.417
       26.30095       20.07257       10.69051        0.417
       11.29223       22.99521       21.02399       -0.834
       11.27216       23.83237       21.48766        0.417
       11.31685       23.23453       20.09752        0.417
       18.56609       29.39171       21.40834       -0.834
       18.38004       29.96818       20.66718        0.417
       18.94102       29.96920       22.07330        0.417
       15.18295        7.30027       17.28733       -0.834
       15.29011        7.96621       16.60816        0.417
       14.65716        6.61656       16.87221        0.417
        8.81644       12.38862        7.29941       -0.834
        8.20489       11.87911        7.83104        0.417
        8.73037       13.28407        7.62650        0.417
       22.18654        5.47525       18.00711       -0.834
       22.17573        4.83380       18.71751        0.417
       21.33830        5.91464       18.06759        0.417
       13.64622        5.30930       16.19602       -0.834
       13.72524        4.64924       15.50731        0.417
       12.93868        4.98890       16.75545        0.417
       10.53617       20.96181        7.33567       -0.834
       11.29583       20.69282        7.85218        0.417
       10.18665       20.14495        6.97957        0.417
       25.50063       14.15645       20.05584       -0.834
       25.80054       13.82563       19.20918        0.417
       26.23535       14.67410       20.38515        0.417
       10.28153       26.58248       19.24537       -0.834
        9.90978       27.15318       18.57281        0.417
       10.23971       25.70492       18.86539        0.417
       20.04425       10.51927       26.15771       -0.834
       19.28393       10.84816       26.63727        0.417
       20.39359        9.82100       26.71144        0.417
       12.46488       20.18700        4.83678       -0.834
       13.15268       20.02174        4.19192        0.417
       12.03161       20.98236        4.52706        0.417
       18.78212        3.47992       18.25858       -0.834
       19.13790        2.59994       18.38217        0.417
       18.92281        3.91588       19.09905        0.417
       10.31893       29.69868       20.19009       -0.834
       10.13672       30.12103       19.35065        0.417
       10.48131       28.78203       19.96732        0.417
        7.66442       26.95290       16.51753       -0.834
        6.96600       27.22367       17.11344        0.417
        7.84998       26.04612       16.76155        0.417
       22.63759       18.63656       11.85736       -0.834
       22.95479       19.53303       11.74795        0.417
       23.34672       18.18530       12.31534        0.417
        9.98034       17.91524        8.94724       -0.834
       10.79295       17.92900        8.44157        0.417
       10.09930       17.20096        9.57325        0.417
       22.74465       27.68985       20.58236       -0.834
       22.19869       26.91844       20.73428        0.417
       23.32536       27.72633       21.34241        0.417
       11.13164        7.45641       18.05584       -0.834
       11.61249        8.26831       18.21657        0.417
       11.58034        6.80178       18.59097        0.417
       18.59857        6.31657       23.39113       -0.834
       18.25903        7.00354       23.96474        0.417
       18.25675        5.50322       23.76240        0.417
       16.98884       26.40023       19.31948       -0.834
       17.69374       26.47274       19.96297        0.417
       17.39212       25.96202       18.57010        0.417
       30.59173       17.43638       20.85519       -0.834
       30.19006       16.58053       20.70545        0.417
       31.43365       17.23793       21.26510        0.417
       13.80133       16.49053       22.34140       -0.834
       14.75689       16.43528       22.33158        0.417
       13.51888       15.68595       22.77625        0.417
        9.16875       20.84975       13.30600       -0.834
        8.25035       20.63273       13.46624        0.417
        9.14117       21.52300       12.62614        0.417
       21.97913       18.16146       24.51872       -0.834
       22.11525       17.28901       24.14922        0.417
       22.46147       18.74716       23.93516        0.417
       17.08826       11.71555       23.99150       -0.834
       16.32101       12.04829       24.45716        0.417
       16.74465       11.40536       23.15368        0.417
       12.79802       26.38648       20.11677       -0.834
       11.88639       26.56400       19.88512        0.417
       12.78691       26.27604       21.06751        0.417
        9.52787       24.59461       24.36794       -0.834
        9.80452       24.29389       25.23355        0.417
        8.78524       24.03336       24.14492        0.417
        6.69460        8.96920       23.91218       -0.834
        6.19189        9.77713       24.01587        0.417
        7.59181        9.21406       24.13866        0.417
        8.70063       16.27549        7.25906       -0.834
        9.40889       15.98508        6.68437        0.417
        9.08540       16.98408        7.77489        0.417
       25.63541       23.78162        9.03645       -0.834
       26.01420       24.31032        9.73875        0.417
       26.38991       23.47311        8.53467        0.417
       17.42182       12.88868       30.41279       -0.834
       18.30407       13.25273       30.48572        0.417
       17.41072       12.45556       29.55926        0.417
        4.99222       12.31501       16.59494       -0.834
        5.63395       12.98580       16.82826        0.417
        5.25477       11.54562       17.10024        0.417
        5.09352       24.69262        9.76117       -0.834
        5.24899       23.90923       10.28877        0.417
        4.95833       24.36114        8.87343        0.417
       16.16112       30.73496       19.90891       -0.834
       15.55464       31.43553       19.66887        0.417
       15.83305       29.96431       19.44556        0.417
       19.88411       25.06910        5.30930       -0.834
       18.92888       25.03099        5.26124        0.417
       20.11751       24.41547        5.96848        0.417
       22.90392       15.56734       23.62480       -0.834
       22.87081       15.28210       22.71169        0.417
       23.14022       14.77925       24.11400        0.417
       18.03622       24.43343       12.12736       -0.834
       18.08452       23.47912       12.18395        0.417
       18.34142       24.63716       11.24329        0.417
       26.66274        5.78029       14.09772       -0.834
       25.89396        6.34247       14.19348        0.417
       27.37833        6.28423       14.48530        0.417
        9.56145       25.03587       13.84867       -0.834
       10.09913       25.79714       14.06679        0.417
        9.26869       25.19785       12.95184        0.417
        9.13334       13.48048       24.38087       -0.834
        9.70119       12.84043       23.95177        0.417
        8.58846       12.96014       24.97128        0.417
       21.91207        9.93340       20.64839       -0.834
       21.60949       10.81884       20.44674        0.417
       21.13553        9.48481       20.98304        0.417
        7.34162       17.44376       10.48644       -0.834
        7.32547       18.11238        9.80167        0.417
        6.71517       17.75449       11.14008        0.417
        3.58660       15.24782       16.55832       -0.834
        2.68196       15.52870       16.69600        0.417
        3.59570       14.32857       16.82502        0.417
        7.59287       24.68838       20.28986       -0.834
        6.95582       25.31315       19.94336        0.417
        8.30885       24.69847       19.65464        0.417
        9.73108       19.14207       25.12054       -0.834
       10.37006       18.42941       25.11355        0.417
        9.87274       19.59956       24.29177        0.417
       20.98601       19.92609       13.77951       -0.834
       21.32710       19.35629       13.09015        0.417
       20.34832       20.48491       13.33531        0.417
       24.51765       27.22017       22.90732       -0.834
       25.29721       26.90803       23.36677        0.417
       23.78952       26.77378       23.33951        0.417
        7.48844        6.90729       17.65508       -0.834
        7.25195        6.60265       18.53115        0.417
        6.80542        6.55343       17.08544        0.417
        4.35071       16.47900       10.41346       -0.834
        4.84329       15.66003       10.35965        0.417
        4.64907       16.88548       11.22708        0.417
       31.87625       19.03503       14.91027       -0.834
       31.28219       18.67677       15.56979        0.417
       31.94920       18.34379       14.25218        0.417
       14.33972       14.33026        9.27856       -0.834
       13.77641       13.56167        9.18807        0.417
       13.73248       15.05928        9.40518        0.417
       11.64631        7.28943        8.66648       -0.834
       11.28870        6.46027        8.34891        0.417
       11.40718        7.31475        9.59298        0.417
       20.50095       14.09560        6.31017       -0.834
       20.08033       14.65726        5.65913        0.417
       19.77429       13.67133        6.76645        0.417
       12.51361        6.53107        5.93226       -0.834
       12.53524        7.27733        6.53131        0.417
       12.94249        6.84868        5.13764        0.417
       12.34485       10.17777       28.98537       -0.834
       12.05602       10.21406       28.07351        0.417
       13.30062       10.16777       28.93415        0.417
       27.62005       22.77167       15.72211       -0.834
       27.38315       22.54484       16.62137        0.417
       28.53981       22.51806       15.64499        0.417
       13.98530       17.48140        9.65270       -0.834
       13.02976       17.44006        9.61455        0.417
       14.27023       17.27349        8.76285        0.417
       10.52868       25.97935        9.11807       -0.834
       11.47516       25.89102        9.23036        0.417
       10.42467       26.74167        8.54861        0.417
       30.06616       22.34854       13.86397       -0.834
       30.79936       22.67052       14.38837        0.417
       30.34604       21.48302       13.56601        0.417
       24.35782       23.15845       26.26157       -0.834
       23.43486       23.09642       26.01554        0.417
       24.81208       22.59806       25.63241        0.417
       29.56784       15.55949       15.70097       -0.834
       30.16016       16.12059       16.20152        0.417
       30.13834       15.09233       15.09062        0.417
       22.40273       19.02479       27.05505       -0.834
       23.33648       19.06273       27.26218        0.417
       22.36385       18.59704       26.19962        0.417
       17.81153       16.23723       29.15233       -0.834
       18.51054       16.29973       28.50141        0.417
       18.26921       16.14131       29.98753        0.417
       26.83311       20.61208       23.40379       -0.834
       27.42895       19.88301       23.57597        0.417
       26.31968       20.32888       22.64720        0.417
       10.92163       16.35144       25.26391       -0.834
       11.86650       16.32742       25.41514        0.417
       10.70331       15.46751       24.96857        0.417
        9.65916        8.17556       20.91784       -0.834
       10.61099        8.22222       21.00774        0.417
        9.39647        7.47069       21.50978        0.417
        6.16882       26.77086       19.16693       -0.834
        5.61171       26.82101       18.39018        0.417
        6.32892       27.68360       19.40676        0.417
        5.14673       10.29598       12.10918       -0.834
        5.97835        9.86991       11.90158        0.417
        4.48163        9.72258       11.72828        0.417
       12.00543        3.53409       22.30029       -0.834
       11.51865        2.73854       22.51567        0.417
       12.27447        3.41174       21.38987        0.417
       15.76291       14.00620        2.53646       -0.834
       16.09428       13.11022        2.59683        0.417
       16.19676       14.37106        1.76517        0.417
        7.28438       14.88541       28.78679       -0.834
        7.04853       15.80995       28.86317        0.417
        8.23692       14.88772       28.69253        0.417
        5.79784       20.63939       12.83865       -0.834
        5.66122       20.86222       11.91783        0.417
        5.44743       21.38807       13.32127        0.417
       14.91961       19.16804       26.35758       -0.834
       14.40678       18.93259       25.58439        0.417
       15.29282       18.33986       26.65933        0.417
       17.97428       13.41184       12.27522       -0.834
       18.26021       14.05200       11.62355        0.417
       17.28354       12.91509       11.83666        0.417
        6.12048       20.93409       21.38237       -0.834
        6.90669       20.54450       20.99985        0.417
        5.96459       21.72135       20.86069        0.417
       12.92171        7.23019       26.24048       -0.834
       12.57980        7.22970       27.13454        0.417
       12.15057        7.36106       25.68872        0.417
       25.70397        9.86869       13.77435       -0.834
       25.08738       10.16815       14.44248        0.417
       25.82895       10.62825       13.20542        0.417
       15.13841       12.91151       11.69067       -0.834
       15.17268       13.69544       12.23886        0.417
       14.89466       13.23549       10.82358        0.417
       26.82675       15.72140       15.54430       -0.834
       27.77483       15.67023       15.66579        0.417
       26.64847       16.65586       15.43833        0.417
        9.06782       17.13791        3.85602       -0.834
        8.11167       17.09342        3.85195        0.417
        9.27615       17.87645        3.28384        0.417
       22.10866       21.08649       29.04944       -0.834
       21.21001       21.07922       29.37900        0.417
       22.09598       20.48546       28.30457        0.417
        8.90979       25.73844       11.36305       -0.834
        8.19958       26.27619       11.01282        0.417
        9.52009       25.64121       10.63208        0.417
       23.69931       12.99905       13.41050       -0.834
       24.32143       12.81511       12.70668        0.417
       24.24557       13.26436       14.15041        0.417
       23.59928       26.22282       12.25973       -0.834
       22.96266       26.38990       12.95473        0.417
       23.38637       25.34412       11.94543        0.417
       13.91134       14.70070        5.44596       -0.834
       14.20276       13.79117        5.38216        0.417
       14.00895       15.04677        4.55887        0.417
       25.18587       19.63779        5.36185       -0.834
       26.11949       19.51225        5.19208        0.417
       24.86178       18.76371        5.57907        0.417
       12.99607       22.88654       30.56655       -0.834
       13.50803       22.89148       29.75778        0.417
       12.84766       21.95907       30.75097        0.417
       10.47995       11.17844       22.07810       -0.834
       10.78359       11.87705       21.49846        0.417
       10.95641       10.40098       21.78695        0.417
        7.74382       19.77638        8.96494       -0.834
        8.60261       19.37828        9.10715        0.417
        7.70316       19.92839        8.02076        0.417
       20.50847       23.72321       14.34149       -0.834
       20.41580       23.28456       13.49576        0.417
       19.82500       23.33631       14.88868        0.417
       25.45108       23.69634       14.27073       -0.834
       26.19041       23.44621       14.82486        0.417
       24.68756       23.31181       14.70132        0.417
        7.36771       17.24112       19.22979       -0.834
        6.48032       16.89697       19.33144        0.417
        7.47595       17.35047       18.28504        0.417
        4.68346       23.39687       19.80351       -0.834
        5.41601       23.28433       19.19775        0.417
        5.09616       23.54003       20.65522        0.417
       13.62733        5.38559       12.16670       -0.834
       12.96398        5.38990       12.85675        0.417
       13.48042        4.56419       11.69770        0.417
       17.38827       22.34346       25.40342       -0.834
       18.04442       21.84779       24.91351        0.417
       17.87548       22.73574       26.12797        0.417
       23.70055       28.16790       17.84209       -0.834
       23.52112       28.26362       18.77744        0.417
       24.07941       29.00795       17.58321        0.417
       21.59386       26.15291       13.99174       -0.834
       21.28755       25.25843       14.14112        0.417
       21.48679       26.58768       14.83777        0.417
       14.48442       25.88159       28.96818       -0.834
       14.82217       26.65063       28.50913        0.417
       14.15646       25.31169       28.27256        0.417
       20.81098       15.30842        8.73235       -0.834
       20.99914       14.90581        7.88457        0.417
       19.94655       14.97336        8.97058        0.417
       22.38238        5.39516       11.12814       -0.834
       21.75392        6.10547       11.25751        0.417
       21.95663        4.62607       11.50691        0.417
       19.77387       19.81940       22.51281       -0.834
       18.82812       19.78551       22.65648        0.417
       20.08045       18.93758       22.72406        0.417
       18.12292       21.89531       12.97382       -0.834
       18.75330       21.41158       12.44009        0.417
       17.35207       21.32883       13.00719        0.417
       18.77016        6.62086        7.07652       -0.834
       18.16028        7.35476        7.00125        0.417
       18.22459        5.88219        7.34663        0.417
       19.58922       29.08808       12.56240       -0.834
       19.73106       28.26583       12.09333        0.417
       18.76507       28.95771       13.03144        0.417
       19.10575       28.77769       17.49836       -0.834
       19.45009       28.41015       16.68437        0.417
       19.80388       28.63923       18.13842        0.417
        9.90413       20.59390       22.38137       -0.834
        9.97885       20.31246       21.46954        0.417
       10.78404       20.89047       22.61386        0.417
        8.11051       18.16763       26.91319       -0.834
        8.74516       18.48476       26.27063        0.417
        8.06936       17.22304       26.76385        0.417
        4.64007       25.35804       15.54705       -0.834
        4.03694       25.81868       16.13038        0.417
        5.17187       26.05111       15.15579        0.417
       23.87143       23.04193       18.23519       -0.834
       23.38697       23.81342       18.52902        0.417
       23.52641       22.86048       17.36096        0.417
       23.16224        4.66590       15.65313       -0.834
       22.66562        5.25435       15.08451        0.417
       22.93208        4.93932       16.54110        0.417
       20.44599       21.10090       24.86434       -0.834
       20.82386       20.47790       25.48509        0.417
       20.55069       20.68195       24.01009        0.417
       15.09006       12.18524        5.46655       -0.834
       14.91490       11.59657        4.73237        0.417
       15.93646       11.89722        5.80844        0.417
       18.17284       22.72228       15.56814       -0.834
       17.56756       22.34127       16.20431        0.417
       17.87861       22.38191       14.72327        0.417
        6.96849       12.21570       13.85227       -0.834
        7.73714       12.11635       14.41400        0.417
        6.24945       11.84090       14.36096        0.417
       24.44828       17.37826       21.02601       -0.834
       24.80838       16.93215       21.79252        0.417
       25.06821       17.18515       20.32270        0.417
       26.87589       16.30296       10.74625       -0.834
       27.55406       16.93149       10.49868        0.417
       26.44514       16.07749        9.92172        0.417
        4.10495       18.42825        8.23453       -0.834
        4.73761       18.85008        8.81593        0.417
        3.57532       17.88005        8.81350        0.417
        6.50374       14.82392       10.61111       -0.834
        6.93222       15.67923       10.57808        0.417
        6.43444       14.62613       11.54508        0.417
       23.23600       16.88087       14.87372       -0.834
       23.37254       16.04424       15.31829        0.417
       23.55364       16.73387       13.98280        0.417
       20.25175       22.27365       20.73654       -0.834
       20.14654       21.63345       21.44032        0.417
       19.46580       22.17158       20.19980        0.417
       11.85830       13.12940       26.61635       -0.834
       11.16175       12.54201       26.32308        0.417
       11.82864       13.07864       27.57175        0.417