%Nproc=32
%Mem=120Gb
%chk=temp.chk
#p cam-b3lyp/6-31+G(d,p) nosymm charge Freq 

Calculation for S0 with freq for abs spect

0  1
 C         15.38004       17.27958       16.71902
 C         16.84155       15.52199       15.62697
 C         17.88853       15.84070       16.35406
 C         17.76007       16.90938       17.35473
 N         16.54183       17.57835       17.44175
 H         16.69189       14.67501       14.94874
 H         18.70806       15.25227       16.16793
 O         18.65280       17.30314       18.10981
 O         14.35048       17.92253       16.73326
 N         15.62409       16.27893       15.78973
 H         14.90436       16.22393       15.15178
 H         16.34189       18.38354       18.07350
 O         19.78886       19.93397       17.12619
 H         19.51676       20.11761       18.02534
 H         18.98166       19.68139       16.67801
 O         18.17590       18.31920       13.54812
 H         18.65451       17.51824       13.76173
 H         17.35975       18.01288       13.15278
 O         12.49746       13.85900       18.07136
 H         12.60053       14.34642       17.25402
 H         12.34657       12.95525       17.79443
 O         17.71591       14.55417       20.38599
 H         16.99246       14.57231       19.75947
 H         17.82206       15.46621       20.65646
 O         21.09365       13.38082       17.26736
 H         20.40897       13.37042       16.59853
 H         20.61995       13.31765       18.09673
 O         12.74763       14.78467       15.66641
 H         12.11487       14.11227       15.41399
 H         13.12074       15.08615       14.83807
 O         15.56398       17.72469       12.61448
 H         14.95682       17.74121       11.87467
 H         15.22552       18.38652       13.21753
 O         14.77973       12.61261       14.87247
 H         14.06564       13.23603       15.00534
 H         14.85932       12.53797       13.92151
 O         21.29510       17.03280       18.48917
 H         20.38771       17.32902       18.41755
 H         21.47231       16.59842       17.65482
 O         12.83561       18.56852       19.87220
 H         13.12132       18.20946       20.71224
 H         13.60001       19.03919       19.53994
 O         19.50367       15.80203       13.05145
 H         20.43300       15.63183       13.20508
 H         19.15603       14.96813       12.73523
 O         14.09535       15.25067       13.19159
 H         14.01989       14.48507       12.62202
 H         14.23888       15.98275       12.59184
 O         11.87027       17.10909       16.99792
 H         12.68621       17.60472       17.06740
 H         12.09230       16.35704       16.44897
 O         21.07528       16.03124       15.98967
 H         21.39393       15.13026       15.93568
 H         21.43399       16.45964       15.21247
 O         17.12279       11.88074       16.15927
 H         17.15686       10.98387       15.82656
 H         16.56163       12.34576       15.53871
 O         14.06084       19.22160       14.26343
 H         13.13122       19.37704       14.09643
 H         14.09360       18.91223       15.16867
 O         15.24237       14.81493       19.03284
 H         15.01937       15.56834       19.57953
 H         14.41462       14.56132       18.62450
 O         16.25228       12.14961       18.65133
 H         16.37932       11.86957       17.74487
 H         16.01656       13.07501       18.58582
 O         15.52226       20.04445       18.51792
 H         15.46886       20.98655       18.35718
 H         15.33803       19.64512       17.66773
 O         17.23405       19.80746       15.76797
 H         16.73013       20.53050       15.39446
 H         17.45152       19.25389       15.01797
 O         18.10574       16.98982       21.17540
 H         18.51626       17.72148       20.71455
 H         17.44431       17.39860       21.73365
 
       17.33388       14.58304        8.00112       -0.834
       18.04495       13.94962        8.09801        0.417
       16.88026       14.31428        7.20223        0.417
       18.12361       27.98358       23.97276       -0.834
       18.69002       28.64408       23.57382        0.417
       17.63948       27.60707       23.23785        0.417
       27.46797       26.68705       15.65176       -0.834
       27.28050       27.42474       16.23219        0.417
       28.04896       27.04953       14.98296        0.417
       25.33921       27.48927       22.09716       -0.834
       25.56775       26.88541       22.80381        0.417
       24.81338       28.16726       22.52151        0.417
       11.20336       12.79494       14.16796       -0.834
       11.41997       11.92448       13.83388        0.417
       10.95366       13.29495       13.39087        0.417
       13.97806       30.72623       16.84299       -0.834
       13.84646       30.47930       15.92760        0.417
       13.84499       29.91426       17.33210        0.417
       27.93337       24.22591       13.50922       -0.834
       28.55140       24.57169       14.15319        0.417
       28.21957       24.60105       12.67640        0.417
       31.01227       13.94557       17.35336       -0.834
       30.86001       14.88329       17.47058        0.417
       31.45258       13.67153       18.15788        0.417
       13.98038       21.37022       28.77706       -0.834
       14.01674       20.45779       29.06407        0.417
       13.32201       21.37720       28.08227        0.417
       19.39189        7.80615        9.22460       -0.834
       18.59334        7.74084        8.70088        0.417
       19.92949        8.44985        8.76322        0.417
        7.58986        6.48915       12.14486       -0.834
        6.76165        6.78091       12.52588        0.417
        8.17540        7.24044       12.23945        0.417
       21.83974       28.34378       12.26826       -0.834
       21.54402       27.71364       12.92533        0.417
       22.68699       28.64901       12.59263        0.417
       19.31059       29.04914       14.53386       -0.834
       19.00140       29.54806       13.77774        0.417
       19.63642       28.22895       14.16323        0.417
       20.96969       13.18146       28.44769       -0.834
       21.03203       12.63198       29.22898        0.417
       21.52556       12.74484       27.80225        0.417
       21.43115       10.51940       16.35514       -0.834
       20.84751       10.44250       17.10991        0.417
       21.95517       11.29989       16.53548        0.417
        8.77809       11.45563       15.57725       -0.834
        9.68677       11.69079       15.76497        0.417
        8.36308       11.39555       16.43771        0.417
       18.83778       10.09250        3.97260       -0.834
       18.74051       10.78115        3.31493        0.417
       18.83728        9.27826        3.46936        0.417
       27.10556        8.32533       17.31088       -0.834
       27.90645        7.99244       17.71584        0.417
       27.32073        9.22240       17.05553        0.417
        3.63109       20.21759       10.56293       -0.834
        4.19113       20.73403        9.98339        0.417
        2.75113       20.32031       10.20050        0.417
        4.34986       23.73476       10.54509       -0.834
        5.16866       23.42649       10.93338        0.417
        3.73566       23.77209       11.27830        0.417
        9.49552        8.58150       23.63656       -0.834
        8.81689        8.69847       24.30141        0.417
        9.10505        8.92350       22.83227        0.417
       21.83469       12.16881        7.23741       -0.834
       22.12467       12.88202        7.80615        0.417
       22.44384       12.18765        6.49930        0.417
       18.01315        7.21956       27.45475       -0.834
       18.11272        7.67907       26.62098        0.417
       17.14651        6.81627       27.40450        0.417
        3.18661       21.22038       13.50290       -0.834
        3.30847       21.07314       12.56498        0.417
        3.16614       22.17286       13.59564        0.417
       27.28403       18.47932       22.24898       -0.834
       26.94562       18.15079       21.41605        0.417
       26.50260       18.71125       22.75078        0.417
       23.43088       24.35865       26.43900       -0.834
       23.33304       25.29485       26.26529        0.417
       24.04243       24.31357       27.17399        0.417
       13.57188       21.10314       16.83823       -0.834
       14.12273       21.68655       16.31629        0.417
       12.81168       21.63594       17.07158        0.417
        7.56206       26.92114       13.77145       -0.834
        8.41603       27.17585       14.12086        0.417
        6.93809       27.18205       14.44881        0.417
       24.62158       28.46612       13.59012       -0.834
       24.97846       27.59298       13.42738        0.417
       25.38317       29.04537       13.56399        0.417
       28.12187       24.48489       16.69393       -0.834
       27.41634       24.14393       17.24365        0.417
       27.72927       25.22526       16.23138        0.417
       11.23860       12.78736        3.82332       -0.834
       10.62969       12.24425        3.32282        0.417
       12.04174       12.78976        3.30256        0.417
       10.05217       11.66581       24.95333       -0.834
        9.16793       11.30848       24.87164        0.417
       10.24350       12.03253       24.09011        0.417
       22.25696       20.39225       18.38353       -0.834
       21.73183       19.79341       17.85258        0.417
       23.09060       19.93766       18.50446        0.417
        8.06387       18.54562       19.04321       -0.834
        7.43891       19.00760       18.48443        0.417
        7.82328       18.80032       19.93398        0.417
       14.83425       30.18603       14.29710       -0.834
       14.86101       30.12349       13.34232        0.417
       15.46205       30.87649       14.51006        0.417
       12.44521       25.06707       12.26224       -0.834
       13.14005       24.74587       11.68755        0.417
       11.98827       25.72693       11.74068        0.417
        8.39901       26.03528       21.41297       -0.834
        8.33761       26.97669       21.57486        0.417
        8.16869       25.63229       22.25009        0.417
       14.75189       21.62477        2.14164       -0.834
       14.66489       21.40259        3.06863        0.417
       15.68985       21.55299        1.96466        0.417
        7.57390       18.33152       25.16498       -0.834
        6.72612       17.90604       25.29329        0.417
        8.05987       18.14538       25.96836        0.417
       19.20186        6.34936       11.42460       -0.834
       19.18268        6.95654       10.68487        0.417
       18.36023        5.89521       11.38420        0.417
       21.94778       10.94272       20.38349       -0.834
       21.03597       10.96269       20.09278        0.417
       21.99955       11.62008       21.05783        0.417
        2.01279       15.02162       19.09390       -0.834
        2.13202       15.84458       19.56797        0.417
        1.76442       14.38977       19.76867        0.417
        4.54938       16.45153        8.48413       -0.834
        5.12280       17.20139        8.32566        0.417
        3.85313       16.54005        7.83325        0.417
       20.88565       18.98848        8.41574       -0.834
       20.43288       18.20491        8.10391        0.417
       21.63371       18.65282        8.90968        0.417
       24.08346       23.71933       15.56012       -0.834
       24.81603       23.15864       15.30478        0.417
       23.92062       23.49864       16.47719        0.417
       10.76818       14.70433       27.46112       -0.834
       11.19002       14.89459       28.29902        0.417
       10.78021       13.74930       27.39776        0.417
       28.48070       17.29565       24.48831       -0.834
       28.11576       17.93617       25.09887        0.417
       28.19188       17.59442       23.62601        0.417
       16.26787       22.17632       14.94583       -0.834
       16.85276       22.60981       14.32437        0.417
       16.65664       22.35066       15.80297        0.417
       12.79573       28.28601       14.81642       -0.834
       13.20363       27.69394       15.44832        0.417
       13.39327       29.03210       14.76623        0.417
       27.71475       19.76242       25.49908       -0.834
       28.48774       19.99621       24.98521        0.417
       27.50114       20.55792       25.98671        0.417
       19.99642       25.15566       19.62039       -0.834
       20.76702       24.59758       19.51577        0.417
       19.50591       25.04260       18.80623        0.417
       13.08070        4.91825       14.09742       -0.834
       12.25554        5.12809       13.66001        0.417
       13.39346        5.75749       14.43518        0.417
        9.42043       18.76707       10.59904       -0.834
        9.50839       19.71574       10.69138        0.417
        9.67715       18.58920        9.69422        0.417
       17.24062       24.57803       28.06227       -0.834
       17.20100       23.82251       27.47590        0.417
       18.08346       24.98828       27.86849        0.417
       23.35806       29.17803       15.77502       -0.834
       23.65672       29.13391       14.86668        0.417
       23.56401       28.31638       16.13748        0.417
       13.93251       10.20758       16.32595       -0.834
       14.29113       11.00532       15.93706        0.417
       13.03244       10.43698       16.55723        0.417
       13.32278       27.39393       25.80600       -0.834
       13.80659       28.07107       25.33309        0.417
       13.99565       26.90426       26.27898        0.417
       16.01823       25.42588       24.29944       -0.834
       15.42145       26.05693       23.89711        0.417
       16.81458       25.47802       23.77092        0.417
       10.15332       26.75779       25.92816       -0.834
       11.06026       26.80909       26.22993        0.417
        9.92458       25.83209       26.01176        0.417
       20.26603        6.79041       25.36968       -0.834
       19.39695        7.14192       25.17636        0.417
       20.20467        5.86187       25.14545        0.417
       20.49090       29.06435       17.20079       -0.834
       20.86589       28.18558       17.25897        0.417
       19.97676       29.05291       16.39348        0.417
       24.79591       16.48242        4.83031       -0.834
       25.09355       17.04531        4.11560        0.417
       23.89523       16.25610        4.59839        0.417
        9.59822       10.11768        7.60531       -0.834
        9.17301        9.38906        8.05758        0.417
        8.91406       10.78227        7.52484        0.417
       21.87451        5.08044       10.69303       -0.834
       22.78041        4.90263       10.44014        0.417
       21.50016        5.53699        9.93957        0.417
       25.25212       19.34590       24.27645       -0.834
       26.12987       19.39922       24.65453        0.417
       24.67846       19.17875       25.02425        0.417
       17.98885        4.40894       14.61179       -0.834
       18.28660        5.23823       14.98577        0.417
       17.81053        4.61024       13.69314        0.417
       10.65855        4.82081       12.90721       -0.834
       10.25626        3.97139       12.72587        0.417
       10.41499        5.01329       13.81267        0.417
       25.41644       17.68616       29.02645       -0.834
       25.63312       16.92810       28.48365        0.417
       24.91317       17.32339       29.75539        0.417
       26.19257       24.63949       18.96090       -0.834
       26.31069       24.05116       19.70665        0.417
       25.39419       25.12695       19.16388        0.417
       23.86214       16.25973        7.45754       -0.834
       23.96773       16.24441        6.50630        0.417
       23.78336       17.18849        7.67532        0.417
       24.66280       11.65560       19.69046       -0.834
       24.37038       12.37660       19.13289        0.417
       23.91265       11.46942       20.25512        0.417
       18.93805       15.14353       23.24557       -0.834
       19.68888       15.68834       23.48153        0.417
       18.52154       15.60980       22.52072        0.417
       11.25808       20.85177        9.43139       -0.834
       11.89420       21.52640        9.19378        0.417
       10.94825       20.50826        8.59340        0.417
       22.44489       18.57331        5.63171       -0.834
       22.09806       17.71066        5.40416        0.417
       22.01186       19.17375        5.02489        0.417
       25.86815       11.49278        6.32330       -0.834
       25.01943       11.85151        6.06402        0.417
       26.34135       12.23859        6.69218        0.417
       15.24479       14.66554       25.55409       -0.834
       15.66043       14.10068       26.20555        0.417
       15.91212       15.31797       25.34139        0.417
       18.69309        4.33627        8.99732       -0.834
       17.82524        4.41762        9.39285        0.417
       18.69833        4.98596        8.29440        0.417
        3.77767       14.08610       15.43138       -0.834
        4.14238       13.56249       14.71790        0.417
        3.05165       13.56077       15.76775        0.417
       22.89201       20.30388       23.36928       -0.834
       23.64623       19.82423       23.71179        0.417
       22.64747       20.90235       24.07516        0.417
       25.84558       21.89533       27.13472       -0.834
       25.82788       22.67699       27.68692        0.417
       26.08946       22.21947       26.26771        0.417
       16.53242       28.56517       16.95584       -0.834
       15.75237       28.94300       17.36205        0.417
       16.98265       29.31168       16.56055        0.417
        7.17127        9.09156       22.01437       -0.834
        6.85754        9.19669       21.11617        0.417
        6.38071        8.92060       22.52624        0.417
       10.51250       16.73680       14.50440       -0.834
        9.67491       16.38070       14.80083        0.417
       10.70506       17.44269       15.12155        0.417
       10.72289       15.15380        4.93202       -0.834
       10.07644       15.57847        4.36811        0.417
       10.82515       14.27701        4.56186        0.417
       24.37991       12.53575        9.33499       -0.834
       24.58671       11.60150        9.30958        0.417
       24.64400       12.81625       10.21124        0.417
       29.79841       19.13122       21.63126       -0.834
       28.85680       19.13200       21.80331        0.417
       29.99488       18.22999       21.37547        0.417
       18.41209        1.71579       18.72599       -0.834
       17.86262        1.94665       19.47502        0.417
       17.98055        2.12586       17.97640        0.417
       13.74804       22.11528       13.75817       -0.834
       13.54787       21.28480       14.19000        0.417
       14.70183       22.18401       13.80052        0.417
       15.00433        8.62510       24.93800       -0.834
       14.04736        8.60402       24.93846        0.417
       15.24775        8.45198       24.02860        0.417
       12.58861       10.55756       21.70237       -0.834
       12.53239       10.17848       20.82523        0.417
       13.52578       10.57580       21.89632        0.417
       10.15840       28.22922       14.15520       -0.834
       10.37907       28.87999       13.48883        0.417
       10.99798       27.83689       14.39480        0.417
        7.20905       21.86833       19.22554       -0.834
        8.15067       21.72276       19.13397        0.417
        7.10201       22.81462       19.12913        0.417
       20.56345       26.55565       13.81894       -0.834
       19.70895       26.13499       13.91438        0.417
       21.05868       26.26993       14.58663        0.417
       18.96034       11.41713       21.77814       -0.834
       19.17466       10.57914       22.18811        0.417
       18.09406       11.63728       22.12067        0.417
       22.76819       23.75748       20.87538       -0.834
       23.18027       23.43366       20.07440        0.417
       23.01860       23.12343       21.54733        0.417
       15.23797        8.21526       27.85426       -0.834
       15.01648        8.57595       26.99573        0.417
       14.47649        7.68850       28.09696        0.417
       20.37273       20.75946        6.40303       -0.834
       21.19362       21.23036        6.25943        0.417
       20.53412       20.22800        7.18260        0.417
       27.61235       16.23257       17.68402       -0.834
       28.21208       16.97857       17.67697        0.417
       27.18522       16.27610       18.53953        0.417
       25.54550        4.29157       14.43391       -0.834
       24.69624        4.05029       14.06408        0.417
       25.40477        5.15967       14.81184        0.417
       29.58952       10.39336       19.69897       -0.834
       29.34431       10.74824       18.84448        0.417
       28.75667       10.26099       20.15182        0.417
       13.65133       14.43622        9.73569       -0.834
       13.61692       14.10712        8.83751        0.417
       14.57998       14.60629        9.89355        0.417
       11.44864       24.82243       15.00656       -0.834
       11.67718       23.89292       15.00502        0.417
       11.91593       25.18571       14.25431        0.417
       18.35546       19.19027       25.87157       -0.834
       17.49299       18.92928       26.19447        0.417
       18.71943       19.73301       26.57100        0.417
        8.66972       12.80957       20.75384       -0.834
        9.19536       12.01063       20.79426        0.417
        9.28424       13.48713       20.47185        0.417
       19.08665       20.86074       12.88975       -0.834
       19.11018       19.95614       13.20177        0.417
       18.17733       20.99973       12.62507        0.417
       14.74790       11.37640        9.89372       -0.834
       15.35332       11.11735        9.19903        0.417
       13.91226       11.50987        9.44636        0.417
       23.03215        8.59615       20.09162       -0.834
       22.57275        9.42172       19.93790        0.417
       23.94884        8.84858       20.20208        0.417
        3.55644       23.86616       13.11356       -0.834
        3.07323       24.52684       13.60979        0.417
        4.41404       23.82769       13.53696        0.417
       13.03830       17.96431        4.42865       -0.834
       12.78484       17.04857        4.31288        0.417
       13.60322       18.15352        3.67945        0.417
       27.53211       13.95962       14.76391       -0.834
       27.96299       14.74475       15.10176        0.417
       27.07913       13.58957       15.52161        0.417
       15.26898       27.79133       10.95690       -0.834
       15.83469       27.92668       10.19671        0.417
       15.76721       27.20401       11.52527        0.417
        4.89344       11.46669       17.68498       -0.834
        5.02766       11.25742       16.76063        0.417
        5.16647       12.38052       17.76625        0.417
       18.22150        8.64218       25.26060       -0.834
       18.14959        9.57412       25.46686        0.417
       17.31907        8.35835       25.11467        0.417
       11.00901       26.59538       17.11499       -0.834
       10.47766       26.14410       17.77093        0.417
       10.97088       26.02903       16.34425        0.417
       12.25865        6.02759       16.96784       -0.834
       13.01206        6.43641       16.54183        0.417
       12.57157        5.16163       17.22945        0.417
        7.54995        4.21797       16.19743       -0.834
        8.32266        4.59735       15.77885        0.417
        7.69394        4.35265       17.13411        0.417
       15.83167       30.45435       11.51794       -0.834
       15.18464       30.99233       11.06170        0.417
       15.48133       29.56489       11.46946        0.417
       29.66079       20.51098       15.42467       -0.834
       29.36538       20.08781       16.23083        0.417
       29.27527       19.98628       14.72303        0.417
        8.40109       12.18953       18.14030       -0.834
        8.48611       12.45990       19.05457        0.417
        7.53620       12.50363       17.87659        0.417
       16.57956       12.25397       23.23349       -0.834
       15.70450       12.29341       23.61944        0.417
       16.82564       13.16970       23.10261        0.417
       19.51689       16.51198        7.95350       -0.834
       20.13670       16.49358        8.68270        0.417
       18.87150       15.83908        8.17006        0.417
       25.57678       26.44539       10.82348       -0.834
       25.43645       25.58044       10.43826        0.417
       25.06175       26.43523       11.63024        0.417
       25.19481        4.97035       22.84649       -0.834
       25.36182        5.60086       23.54711        0.417
       24.42454        5.31341       22.39347        0.417
       27.16164       18.79049       14.87664       -0.834
       27.15881       19.01411       13.94593        0.417
       27.55017       17.91641       14.91226        0.417
       25.07908       16.70332       11.23467       -0.834
       25.05447       15.78024       10.98260        0.417
       25.99628       16.95633       11.12993        0.417
        4.64621       14.81822       25.06938       -0.834
        4.44046       15.61329       25.56108        0.417
        5.21267       14.31445       25.65381        0.417
        9.01457       21.63950       10.87454       -0.834
        9.82830       21.55616       10.37740        0.417
        9.28904       21.96743       11.73090        0.417
       19.74816       30.11323       10.04590       -0.834
       19.98424       30.29085        9.13544        0.417
       19.81041       29.16165       10.12871        0.417
       17.33045       10.87380        8.38005       -0.834
       18.22140       11.21257        8.29244        0.417
       17.10416       10.56404        7.50308        0.417
       10.27448       17.28691       20.08314       -0.834
        9.65923       17.71980       19.49128        0.417
       11.13838       17.51150       19.73749        0.417
        3.11055       10.39818       19.02163       -0.834
        2.39457       10.97441       19.28916        0.417
        3.70628       10.96645       18.53335        0.417
       28.84176       14.38228       20.49708       -0.834
       27.92271       14.34714       20.76229        0.417
       29.19197       13.52260       20.73060        0.417
       13.00894       28.71592       12.13099       -0.834
       12.81356       28.57033       13.05666        0.417
       13.64963       28.03942       11.91166        0.417
       14.17426       16.98025       24.47145       -0.834
       14.57510       16.19634       24.84700        0.417
       13.27577       16.97194       24.80142        0.417
       18.54966       24.82957       13.32769       -0.834
       18.90476       24.07777       13.80197        0.417
       18.72561       24.63721       12.40668        0.417
       20.78408        3.45372       14.77402       -0.834
       21.06681        2.80846       15.42204        0.417
       19.84566        3.55706       14.93186        0.417
       16.82721       25.63332        9.41237       -0.834
       17.28596       26.43562        9.66157        0.417
       17.23977       25.36623        8.59097        0.417
       24.64529       20.56746       15.71396       -0.834
       24.98288       20.12418       16.49227        0.417
       25.37693       21.10244       15.40616        0.417
       31.50406       17.59087       15.37645       -0.834
       32.24228       17.00915       15.19515        0.417
       31.90141       18.45398       15.49210        0.417
       16.25819       22.16935       26.95794       -0.834
       15.53229       21.94519       26.37565        0.417
       16.04374       21.73883       27.78552        0.417
       19.71045       29.94285       22.41517       -0.834
       19.62093       30.89497       22.45627        0.417
       19.77262       29.74778       21.48012        0.417
       22.51209       14.42269        9.05494       -0.834
       22.82811       15.12119        8.48184        0.417
       23.25935       13.83171        9.14754        0.417
       18.46757       30.51167       12.41589       -0.834
       18.93259       30.61460       11.58559        0.417
       17.54142       30.56894       12.18095        0.417
       13.26314       10.59224       28.53842       -0.834
       12.58103       10.07613       28.10878        0.417
       13.30768       11.40189       28.02978        0.417
       14.15798       21.04330       11.16353       -0.834
       13.53102       20.32133       11.20736        0.417
       13.98727       21.55762       11.95256        0.417
       13.92515       19.39629        6.90982       -0.834
       14.47517       18.83599        7.45734        0.417
       13.74721       18.86994        6.13038        0.417
       19.70404       12.17875       14.76168       -0.834
       20.23517       11.43494       15.04608        0.417
       18.93188       12.15227       15.32674        0.417
        9.49245       18.74636        7.69200       -0.834