%Nproc=32
%Mem=120Gb
%chk=temp.chk
#p cam-b3lyp/6-31+G(d,p) nosymm charge Freq 

Calculation for S0 with freq for abs spect

0  1
 C         17.40267       17.43810       15.58867
 C         15.98918       17.15237       17.58776
 C         15.63613       15.90892       17.18265
 C         16.24554       15.32564       16.03235
 N         17.07013       16.14005       15.31099
 H         15.65001       17.61421       18.51235
 H         14.87702       15.30534       17.76888
 O         15.86002       14.27866       15.51277
 O         18.16321       18.03718       14.84747
 N         16.86530       17.81418       16.87826
 H         17.16093       18.76158       17.10650
 H         17.65620       15.86912       14.52789
 O         15.09405       17.69113       20.94351
 H         15.96664       17.43415       21.24149
 H         15.05070       18.63249       21.11139
 O         13.33538       19.94933       14.94830
 H         12.45765       20.32009       15.03973
 H         13.20353       19.00308       15.00720
 O         17.30166       20.43444       12.78306
 H         17.04909       20.29956       13.69643
 H         17.81638       19.65902       12.55939
 O         13.56001       12.86680       17.07413
 H         12.95864       13.39184       17.60226
 H         13.54702       13.28191       16.21171
 O         18.11037       17.48836       19.80539
 H         18.19821       18.41441       19.57966
 H         18.10647       17.47397       20.76248
 O         15.98994       11.77479       14.13650
 H         15.16482       11.31141       14.28030
 H         15.91734       12.56563       14.67086
 O         15.43135       21.48140       14.70068
 H         14.67531       20.91054       14.83760
 H         15.38034       21.72999       13.77773
 O         18.75746       14.62010       13.70278
 H         19.39515       14.34757       14.36256
 H         19.06460       14.21644       12.89102
 O         16.71705       15.06899       11.00658
 H         17.37149       15.20175       11.69236
 H         16.06669       14.49013       11.40430
 O         20.15982       19.32309       15.83125
 H         19.40069       18.83993       15.50489
 H         20.79846       19.27566       15.11983
 O         13.10769       17.02004       12.46841
 H         13.78868       17.69246       12.44992
 H         13.42334       16.34230       11.87070
 O         12.24486       17.40612       15.03324
 H         12.39907       17.15020       14.12386
 H         11.82429       16.64292       15.42931
 O         16.63498       20.85918       17.02791
 H         15.96011       20.95408       17.70006
 H         16.19547       21.09650       16.21137
 O         18.98477       18.14513       11.88659
 H         19.06265       17.90725       12.81049
 H         19.80451       17.84732       11.49218
 O         14.59083       14.26668       12.69343
 H         15.13020       14.19584       13.48102
 H         13.69428       14.14151       13.00450
 O         14.49433       20.65152       18.86870
 H         13.79674       20.15680       18.43875
 H         14.07028       21.45731       19.16383
 O         17.26906       12.42383       18.78505
 H         17.43508       11.86937       18.02266
 H         16.35531       12.69315       18.69151
 O         20.07028       15.39252       19.62116
 H         19.36528       16.02763       19.49527
 H         19.64370       14.63768       20.02671
 
       28.90953       16.91618       15.65856       -0.834
       27.95882       16.93065       15.76887        0.417
       29.07034       17.46383       14.89015        0.417
       14.24952        2.72647       18.95529       -0.834
       14.62330        3.58496       19.15406        0.417
       13.57863        2.59584       19.62542        0.417
        9.69478       11.47342       25.12348       -0.834
        9.68069       12.35648       25.49261        0.417
       10.30664       11.52985       24.38954        0.417
       20.95305       23.18224       11.85744       -0.834
       21.85798       23.47374       11.96865        0.417
       20.47250       23.61733       12.56171        0.417
       18.65081        8.78897       19.80177       -0.834
       18.63761        8.28981       20.61841        0.417
       19.43848        8.48761       19.34901        0.417
       18.24582       12.49408        6.27066       -0.834
       18.21389       11.75769        6.88134        0.417
       18.89886       13.08658        6.64311        0.417
       17.08693        7.98429       27.37134       -0.834
       16.25039        8.42861       27.23344        0.417
       17.52911        8.03683       26.52403        0.417
       16.02236       14.36609       24.15453       -0.834
       15.42764       14.92861       24.65063        0.417
       16.84336       14.85694       24.11914        0.417
        7.98895       25.31293       19.10485       -0.834
        8.16874       26.10138       18.59275        0.417
        8.84861       25.02501       19.41195        0.417
       10.50027       25.71995       14.41359       -0.834
       10.54566       25.88393       13.47163        0.417
        9.69421       25.21726       14.53110        0.417
       17.89920       16.80091        6.55833       -0.834
       17.87827       16.42369        7.43782        0.417
       18.81050       16.71015        6.27990        0.417
       14.18990       21.52446       23.21754       -0.834
       14.88327       21.46667       22.56017        0.417
       13.44085       21.88758       22.74499        0.417
       24.39454       22.29137       24.93943       -0.834
       23.71559       22.81525       25.36463        0.417
       23.92233       21.55262       24.55536        0.417
       21.38519       11.74095        4.71391       -0.834
       21.18067       12.63474        4.98874        0.417
       20.68108       11.50901        4.10839        0.417
       21.84816        6.57988       20.42125       -0.834
       22.18286        5.72998       20.13511        0.417
       21.67699        7.05627       19.60886        0.417
       29.01243       17.23048       21.15430       -0.834
       29.78545       16.67741       21.04124        0.417
       28.70991       17.40517       20.26312        0.417
       21.28434       14.34507       22.16923       -0.834
       21.08326       14.83922       21.37449        0.417
       20.46920       13.89063       22.38196        0.417
        5.79388       25.86175       20.40793       -0.834
        5.54670       26.70438       20.02701        0.417
        6.61717       25.63512       19.97543        0.417
        8.57264       20.60961       25.90102       -0.834
        7.70614       20.35189       25.58638        0.417
        8.57693       21.56466       25.83702        0.417
       15.23687       12.91391       30.01620       -0.834
       16.14695       12.99907       29.73206        0.417
       14.79575       12.48466       29.28314        0.417
        5.42442       11.35447       19.76461       -0.834
        4.83985       11.22324       20.51113        0.417
        5.14174       10.70452       19.12128        0.417
       18.67890       11.72945       10.55634       -0.834
       18.04213       11.97011        9.88341        0.417
       19.24225       12.49881       10.63977        0.417
       18.23524        9.20222       24.80570       -0.834
       19.14555        9.41601       24.60110        0.417
       17.72789        9.91311       24.41395        0.417
        3.51903       21.54492       11.37268       -0.834
        3.06456       22.37978       11.48542        0.417
        4.41440       21.78886       11.13808        0.417
       15.57628        6.58898       14.92169       -0.834
       16.10534        7.07332       14.28787        0.417
       14.98295        6.06217       14.38629        0.417
       22.22653       19.47943       13.92956       -0.834
       22.80833       19.58539       13.17689        0.417
       21.98178       18.55416       13.91532        0.417
       10.17465       26.24335       11.74586       -0.834
       10.31830       25.95574       10.84426        0.417
        9.25132       26.49424       11.77350        0.417
        5.30984       21.00437       22.85250       -0.834
        5.64655       21.29375       23.70051        0.417
        4.56971       21.58550       22.67718        0.417
       21.90085        8.86284       15.20812       -0.834
       22.51326        8.22051       14.84950        0.417
       21.52427        8.43277       15.97589        0.417
       19.79456        3.41052       11.49143       -0.834
       20.22746        2.67857       11.05202        0.417
       19.34881        3.88286       10.78827        0.417
        8.92844       23.11181       22.96104       -0.834
        8.03031       22.85085       23.16472        0.417
        8.88446       23.44348       22.06421        0.417
       21.43207       10.12295       18.57183       -0.834
       20.98560       10.95897       18.43782        0.417
       22.35706       10.31809       18.42165        0.417
       28.40430       10.94681       10.60456       -0.834
       27.53221       10.66929       10.88505        0.417
       28.55545       11.76964       11.06968        0.417
       12.96427       11.61896       27.17673       -0.834
       13.22144       11.96049       26.32031        0.417
       12.06205       11.91687       27.29284        0.417
       18.83102       24.48108       29.02740       -0.834
       18.23520       24.27202       28.30801        0.417
       19.21743       25.32183       28.78236        0.417
       12.17431       11.67407        6.49126       -0.834
       12.14220       11.81927        5.54568        0.417
       12.72693       10.89963        6.59651        0.417
        9.12179       26.90755        8.20348       -0.834
        8.62237       26.43486        7.53761        0.417
       10.01584       26.57819        8.11171        0.417
       13.43805        6.96777        7.23805       -0.834
       13.00211        7.31639        6.46045        0.417
       12.75260        6.94074        7.90563        0.417
       13.33619        5.99206       22.50395       -0.834
       12.86153        5.63997       21.75098        0.417
       13.93645        5.29119       22.75835        0.417
        9.72238        7.82501        8.68697       -0.834
        9.33424        7.31705        7.97454        0.417
       10.35942        7.23189        9.08524        0.417
       29.07853       11.10898       23.27406       -0.834
       28.37085       11.64525       23.63159        0.417
       29.58747       10.84193       24.03950        0.417
       24.67464       12.91939       25.88870       -0.834
       24.54775       13.70582       25.35800        0.417
       24.10806       12.26265       25.48384        0.417
       20.33524       17.34888        5.49115       -0.834
       20.90051       18.04478        5.82644        0.417
       20.33172       17.47857        4.54279        0.417
       13.32216       20.19738       27.51468       -0.834
       14.16841       20.52192       27.20683        0.417
       12.71383       20.91725       27.34752        0.417
       15.23315        5.17402       20.26231       -0.834
       15.36647        6.06898       19.94999        0.417
       16.08104        4.91763       20.62506        0.417
        7.86822       14.29611       10.60502       -0.834
        7.11344       14.25826       10.01757        0.417
        8.54822       13.79512       10.15465        0.417
       19.25395       13.03842       23.71427       -0.834
       19.66252       12.17679       23.63125        0.417
       18.44210       12.87385       24.19390        0.417
       19.58790       29.14219       25.10878       -0.834
       19.91435       28.24238       25.11116        0.417
       19.28727       29.29080       26.00531        0.417
       17.45163       10.11750       17.26182       -0.834
       17.70071        9.55787       16.52628        0.417
       18.10784        9.93581       17.93458        0.417
        7.58879        8.33823       15.17317       -0.834
        8.02142        8.16820       16.00993        0.417
        7.74694        7.54822       14.65635        0.417
       25.55301       22.69039       13.92755       -0.834
       26.37257       23.02711       14.28973        0.417
       25.82406       22.00320       13.31883        0.417
       20.24685       14.73940       29.37752       -0.834
       20.68132       15.48719       28.96731        0.417
       20.68716       13.97386       29.00832        0.417
        9.49805       14.41226       24.89337       -0.834
        9.38951       14.67716       23.97998        0.417
       10.32129       14.81827       25.16479        0.417
       16.85410        5.73656       11.59876       -0.834
       17.61254        6.15285       12.00828        0.417
       17.22715        5.16680       10.92610        0.417
       15.32936       30.58370       20.51039       -0.834
       15.11572       31.34953       19.97738        0.417
       16.21265       30.33844       20.23495        0.417
       10.56997       24.62117       27.31807       -0.834
       10.60708       25.39978       27.87360        0.417
       10.65476       24.95839       26.42626        0.417
       17.78370       13.22675       29.31785       -0.834
       18.65934       13.58708       29.45806        0.417
       17.82497       12.82697       28.44911        0.417
       22.45114       23.77449        5.61445       -0.834
       21.85118       24.41801        5.23740        0.417
       22.40211       23.02452        5.02169        0.417
       31.12434       14.40080       19.80850       -0.834
       31.94790       13.91693       19.74642        0.417
       31.09030       14.92061       19.00546        0.417
       22.55454       20.09958       28.72624       -0.834
       22.84331       19.43118       29.34759        0.417
       22.49541       20.90107       29.24620        0.417
       16.32731        2.60302       17.11437       -0.834
       15.55149        2.60236       17.67503        0.417
       16.06267        2.10984       16.33786        0.417
       20.12499       29.25456       20.68637       -0.834
       20.91929       28.82979       21.01023        0.417
       20.06501       30.06672       21.18940        0.417
        6.55186       14.89229       13.06523       -0.834
        7.25825       14.84243       12.42122        0.417
        5.93726       15.52795       12.69858        0.417
       14.89729        4.04437        6.94576       -0.834
       15.41516        3.39363        7.41965        0.417
       15.11224        4.87602        7.36812        0.417
       12.23640       16.56698        7.94780       -0.834
       13.04829       16.46420        7.45131        0.417
       11.64697       15.90672        7.58329        0.417
       11.98374       20.05303       18.34363       -0.834
       11.45952       20.67524       18.84789        0.417
       11.37007       19.67940       17.71115        0.417
       22.56289       29.29122       16.86565       -0.834
       22.73275       29.85031       17.62380        0.417
       22.24717       28.46874       17.23993        0.417
       10.62680       28.61281       20.96744       -0.834
       11.55888       28.40025       20.91979        0.417
       10.24781       27.91256       21.49871        0.417
       16.60440       17.54660       28.46989       -0.834
       15.85453       17.81859       28.99898        0.417
       17.21564       17.16339       29.09899        0.417
       18.42350       15.46438       24.12965       -0.834
       18.98853       14.75096       23.83299        0.417
       18.97540       15.97836       24.71911        0.417
       12.60502        8.86135       17.37607       -0.834
       13.29871        9.41998       17.72672        0.417
       12.52318        8.15178       18.01330        0.417
       18.62031        7.85706       16.36252       -0.834
       18.42177        8.09135       15.45593        0.417
       18.09892        7.07136       16.52704        0.417
       10.16617        4.58111       17.69295       -0.834
        9.61797        4.03511       18.25651        0.417
        9.98120        5.47734       17.97370        0.417
       25.12813       26.20402       15.15959       -0.834
       25.25546       27.14933       15.07953        0.417
       25.89914       25.82167       14.74057        0.417
       24.69774       15.36517       23.76802       -0.834
       25.26591       15.19161       23.01750        0.417
       24.27274       16.19722       23.55995        0.417
       22.38791       22.11473       14.79682       -0.834
       22.47640       21.20194       14.52258        0.417
       23.24593       22.34192       15.15517        0.417
       10.34651       21.22518       14.50662       -0.834
        9.90641       20.38305       14.39105        0.417
       10.42371       21.57920       13.62066        0.417
       15.81834       20.35645       21.23820       -0.834
       16.72039       20.63998       21.08938        0.417
       15.39754       20.43570       20.38211        0.417
       21.88881       17.32342       20.34262       -0.834
       21.18676       16.74606       20.04258        0.417
       21.74856       18.14050       19.86414        0.417
       21.54020       28.10110        9.40292       -0.834
       20.58324       28.08639        9.38707        0.417
       21.76207       28.30379       10.31173        0.417
       20.15366       11.55801       26.51747       -0.834
       20.92302       10.98974       26.48033        0.417
       20.51158       12.44054       26.61370        0.417
       18.42467       19.70229        3.70118       -0.834
       19.25151       19.30001        3.43521        0.417
       18.67606       20.55431        4.05770        0.417
       15.77229       11.73886        5.24591       -0.834
       16.56868       12.07030        5.66080        0.417
       16.08602       11.21209        4.51085        0.417
        3.28068       18.40268       21.51135       -0.834
        4.18322       18.18425       21.74362        0.417
        3.23785       19.35606       21.58534        0.417
       11.66387       28.75260       11.44633       -0.834
       12.03095       28.31142       10.68027        0.417
       10.81354       28.33388       11.57988        0.417
       12.65844       22.93015       15.53067       -0.834
       12.58905       23.67965       14.93935        0.417
       11.88453       22.40057       15.33873        0.417
        5.29292       14.80850       18.98933       -0.834
        5.87311       14.96379       18.24402        0.417
        4.66707       14.15627       18.67445        0.417
       12.21827       19.66059        7.42443       -0.834
       11.57309       18.99268        7.19235        0.417
       12.80097       19.22541        8.04677        0.417
       14.83540        3.49908       23.10350       -0.834
       14.92142        2.57147       22.88359        0.417
       15.69243        3.87421       22.90097        0.417
        6.32282       19.12464       21.19374       -0.834
        6.02809       19.87110       21.71543        0.417
        6.32787       19.44842       20.29298        0.417
        9.31535       10.62363       27.95931       -0.834
        9.57980       10.52823       27.04432        0.417
       10.02660       11.12005       28.36417        0.417
       28.44236        8.41235       16.01992       -0.834
       28.29571        7.47103       16.11280        0.417
       27.56497        8.78414       15.92939        0.417
       24.08689        4.97649       12.36246       -0.834
       23.16851        5.24527       12.33901        0.417
       24.17757        4.50386       13.18989        0.417
       22.19172       12.30334       11.60948       -0.834
       22.14490       12.02765       10.69404        0.417
       22.40576       11.50379       12.09025        0.417
       11.21565        7.85242       23.11400       -0.834
       11.94273        7.32036       22.79074        0.417
       10.72158        8.08638       22.32826        0.417
        8.46669        7.00298       18.20898       -0.834
        7.55345        6.73027       18.12037        0.417
        8.45039        7.68019       18.88526        0.417
       14.08033       24.26557       19.59266       -0.834
       13.42382       23.76676       19.10645        0.417
       14.02428       25.15074       19.23271        0.417
       14.62381        1.35693       14.56062       -0.834
       14.71088        0.88386       13.73306        0.417
       14.29865        2.22155       14.30974        0.417
       18.68065       21.66694        7.99331       -0.834
       19.03333       21.92635        8.84452        0.417
       17.92599       21.11699        8.20371        0.417
        7.64123       12.70639       17.11135       -0.834
        6.68704       12.70645       17.18721        0.417
        7.82533       12.09359       16.39943        0.417
       18.37813        9.75925        7.46574       -0.834
       18.89394        9.68024        8.26819        0.417
       17.57783        9.26580        7.64532        0.417
        6.34662        7.35738        8.87144       -0.834
        6.77545        6.50388        8.93375        0.417
        6.85177        7.92297        9.45554        0.417
       12.04213       14.79047       18.81996       -0.834
       11.11944       14.99450       18.97245        0.417
       12.50376       15.20927       19.54641        0.417
       13.14797       24.96577       22.38354       -0.834
       13.79239       25.66414       22.49860        0.417
       13.23104       24.71161       21.46444        0.417
        6.15015       11.36628        8.72070       -0.834
        5.34473       11.19020        9.20705        0.417
        6.15850       12.31658        8.60625        0.417
        9.52129       12.71486        9.38375       -0.834
       10.22703       12.87194       10.01103        0.417
        9.57601       11.77901        9.19032        0.417
       18.71628       28.12238        7.58838       -0.834
       18.93843       29.02808        7.37251        0.417
       18.73364       28.09249        8.54495        0.417
       20.44004       26.35940       25.06379       -0.834
       20.69684       25.84372       24.29936        0.417
       21.26648       26.57828       25.49428        0.417
       23.06569       20.45182       19.57896       -0.834
       23.46435       21.32205       19.58055        0.417
       23.21072       20.11979       20.46494        0.417
       20.89846        9.32719        9.20356       -0.834
       20.89608        8.49032        9.66817        0.417
       21.73630        9.34247        8.74094        0.417
       28.16163       21.12316       22.07840       -0.834
       29.05310       20.79918       22.20707        0.417
       27.64904       20.69376       22.76331        0.417
       23.36075       25.80171        8.75094       -0.834
       22.59225       25.23487        8.81677        0.417
       23.00128       26.68586        8.67814        0.417
       22.35362       16.10554        7.43226       -0.834
       23.20516       15.78526        7.72981        0.417
       22.51881       17.00782        7.15870        0.417
       20.18930        5.19936       15.63355       -0.834
       20.36427        4.27867       15.82831        0.417
       19.28514        5.33681       15.91612        0.417
       24.70806       28.98245       21.49039       -0.834
       24.45906       29.48389       22.26678        0.417
       24.00947       28.33616       21.38787        0.417
        5.70742       23.71495       13.05537       -0.834
        5.72148       23.41881       13.96550        0.417
        6.56623       24.11537       12.92000        0.417
       15.33231       22.77626        7.93739       -0.834
       14.56847       22.66617        7.37113        0.417
       15.68049       21.89121        8.04546        0.417
        5.33642       14.20784       15.41561       -0.834
        4.86467       13.38803       15.26865        0.417
        5.71831       14.42092       14.56415        0.417
       15.36734       15.88059       26.54333       -0.834
       15.53851       15.04850       26.98441        0.417
       15.82498       16.53232       27.07440        0.417
       25.17809       20.35912        6.14180       -0.834
       25.39210       20.46882        7.06829        0.417
       25.54220       21.13619        5.71774        0.417
       23.67853       11.48204       21.46688       -0.834
       23.05356       10.78839       21.25594        0.417
       23.96282       11.81583       20.61600        0.417
        5.50868        8.37551       11.71451       -0.834
        4.92712        8.45493       10.95840        0.417
        6.38931        8.46629       11.35052        0.417
       13.85484       25.03221       27.68221       -0.834
       14.64146       24.70703       28.12008        0.417
       13.89532       24.65385       26.80390        0.417
       16.05130       28.76153       24.68304       -0.834
       16.85144       28.66819       24.16604        0.417
       15.58561       29.49143       24.27487        0.417
       25.32098       15.67468       28.25629       -0.834
       24.93562       16.16087       27.52736        0.417
       24.70729       14.95809       28.41792        0.417
       12.20948        6.46436       18.57331       -0.834
       12.12603        5.97262       19.39028        0.417
       12.88901        6.00165       18.08303        0.417
       10.86910       11.19055       18.13016       -0.834
       11.21688       11.74210       18.83093        0.417
       11.53013       10.50856       18.01108        0.417
        5.96073       24.91560        9.04924       -0.834
        6.13842       23.97526        9.02879        0.417
        6.70136       25.30986        8.58852        0.417
       22.32040       14.42609       24.66580       -0.834
       23.14963       14.87955       24.51418        0.417
       21.97410       14.25964       23.78910        0.417
       31.14491       16.61715       17.78780       -0.834
       31.78479       17.32675       17.84488        0.417
       30.31381       17.05723       17.60937        0.417
        8.62692       17.30548       18.80102       -0.834
        7.90620       17.27064       19.42997        0.417
        8.91361       16.39638       18.71395        0.417
        8.16700       23.74474       26.75098       -0.834
        8.98130       24.24162       26.83009        0.417
        7.98669       23.43653       27.63908        0.417
       30.00832       10.46177       15.36538       -0.834
       30.48487       10.06898       14.63405        0.417
       29.48344        9.74528       15.72228        0.417
       12.96572        3.26569        9.56024       -0.834
       13.80126        3.68107        9.77370        0.417
       13.14557        2.75729        8.76941        0.417
        5.79611        6.53463       18.73000       -0.834
        5.61409        7.27901       19.30359        0.417
        5.41432        5.78315       19.18359        0.417
       14.18711       18.20114       29.69668       -0.834
       13.75644       18.46286       30.51049        0.417
       14.05203       18.94126       29.10489        0.417
       19.23201       31.22483       14.92839       -0.834
       19.43530       32.09590       14.58759        0.417
       18.63966       31.38664       15.66267        0.417
       15.22153       26.74323       21.37531       -0.834
       15.63289       25.87921       21.35331        0.417
       15.87565       27.33018       20.99604        0.417
       23.65404       14.67319       20.78191       -0.834
       22.77832       14.56266       21.15222        0.417
       23.73339       15.61497       20.63034        0.417
        9.25197       17.49014        8.78349       -0.834
        9.54019       17.34952        7.88161        0.417
        9.94452       17.10405        9.31972        0.417
       17.30838       24.34255       10.44092       -0.834
       17.59381       23.42897       10.45236        0.417
       16.88027       24.44960        9.59151        0.417
       13.64207       18.06219        4.88850       -0.834
       14.15349       18.74388        5.32438        0.417
       13.49316       17.40329        5.56666        0.417
       14.77718        8.16991       22.97148       -0.834
       14.82709        8.65072       22.14530        0.417
       14.39200        7.32609       22.73518        0.417
       24.18270       12.74310        7.87698       -0.834
       23.30264       12.36683        7.86480        0.417
       24.55990       12.49872        7.03186        0.417
       12.06962       28.67742       14.38736       -0.834
       11.18684       28.79244       14.73907        0.417
       11.93564       28.49727       13.45686        0.417
       22.32314       29.95779       14.02601       -0.834
       21.37285       30.04600       13.95262        0.417
       22.49481       29.98613       14.96727        0.417
       10.95987       15.27425       16.00447       -0.834
       10.95667       14.88140       16.87733        0.417
       10.08119       15.10789       15.66319        0.417
       17.96522        4.13302        9.54090       -0.834
       17.82920        4.87319        8.94940        0.417
       17.77613        3.36132        9.00709        0.417
       22.39902       24.39471       19.88457       -0.834
       23.06150       23.71548       19.75809        0.417
       21.81365       24.30194       19.13293        0.417
       26.09069       13.51490       20.65697       -0.834
       25.15043       13.67721       20.58081        0.417
       26.15479       12.71768       21.18287        0.417