%Nproc=32
%Mem=120Gb
%chk=temp.chk
#p cam-b3lyp/6-31+G(d,p) nosymm charge Freq 

Calculation for S0 with freq for abs spect

0  1
 C         17.65742       17.36563       17.46099
 C         15.44194       17.33036       16.51586
 C         15.68294       16.29612       15.68575
 C         16.95521       15.68312       15.69540
 N         17.83478       16.32775       16.55326
 H         14.44347       17.78464       16.55712
 H         14.92296       15.88510       15.00552
 O         17.30409       14.69600       15.08746
 O         18.47109       17.76587       18.25593
 N         16.36474       17.85854       17.39397
 H         16.08485       18.56544       18.13212
 H         18.81797       16.03328       16.57237
 O         15.06612       20.25273       15.26056
 H         14.25376       20.04811       15.72363
 H         15.05511       19.68134       14.49269
 O         19.21472       19.44605       20.37862
 H         19.08150       20.38329       20.23693
 H         18.90546       19.03496       19.57141
 O         14.03431       16.77868       19.32946
 H         13.81342       15.87310       19.54708
 H         14.15987       17.20540       20.17703
 O         19.43702       14.63227       19.95420
 H         19.92003       14.94421       20.71947
 H         19.76316       15.16687       19.23027
 O         21.00913       19.43783       17.32444
 H         20.11189       19.10492       17.34374
 H         21.54350       18.70547       17.63157
 O         17.79932       17.76931       12.55811
 H         17.19253       18.48003       12.76528
 H         17.32270       17.22079       11.93506
 O         18.66788       18.89549       15.05130
 H         19.61616       18.86495       15.17803
 H         18.51745       18.40161       14.24527
 O         16.09235       12.22425       18.28619
 H         16.27612       13.05357       18.72743
 H         16.82568       12.10597       17.68248
 O         16.72021       14.53092       19.44180
 H         16.08833       14.93265       20.03810
 H         17.57353       14.72741       19.82842
 O         17.14950       14.27290       11.89101
 H         16.86132       13.43675       11.52491
 H         17.22857       14.10893       12.83074
 O         15.95004       19.82182       19.65565
 H         16.41992       19.80536       20.48942
 H         15.06753       20.11442       19.88326
 O         12.85748       20.06271       16.95230
 H         12.12247       20.67111       17.02876
 H         13.24550       20.04398       17.82713
 O         14.90015       18.94818       12.73045
 H         14.57033       19.68873       12.22150
 H         14.28260       18.23930       12.55055
 O         16.63043       12.34573       14.02455
 H         17.15853       11.55387       14.12603
 H         17.10578       13.01580       14.51575
 O         14.60898       12.23058       15.98924
 H         15.09922       12.18754       15.16824
 H         15.25686       12.03499       16.66617
 O         12.37297       15.77363       17.57325
 H         12.93445       16.28035       18.15993
 H         12.15362       16.38121       16.86686
 O         20.39811       16.19943       14.02237
 H         20.94805       15.48741       13.69553
 H         19.58413       16.12179       13.52474
 O         17.24093       20.93054       16.43372
 H         17.75797       20.19293       16.10995
 H         16.36664       20.78838       16.07091
 O         18.52460       12.73720       16.65557
 H         19.27917       12.91863       17.21586
 H         18.30352       13.58449       16.26895
 O         20.45717       15.28887       17.07075
 H         20.84604       15.27823       16.19616
 H         20.74553       14.46888       17.47160
 
       25.40966        9.39211       25.37115       -0.834
       25.45213       10.11680       24.74724        0.417
       26.24421        8.93536       25.26560        0.417
        6.62240       19.58615       21.44839       -0.834
        6.93595       18.68408       21.51310        0.417
        6.46760       19.85202       22.35480        0.417
       26.39647       12.96197       18.69713       -0.834
       26.75247       12.29016       18.11562        0.417
       26.90147       13.74888       18.49223        0.417
       13.09118       26.24594       24.44755       -0.834
       12.24506       25.85904       24.22257        0.417
       13.52654       25.57891       24.97836        0.417
       13.24774       20.63930       19.82200       -0.834
       12.52289       21.22204       19.59562        0.417
       12.85963       19.99034       20.40890        0.417
       19.60585       12.72938        3.91341       -0.834
       20.03251       11.94125        4.24964        0.417
       20.16338       13.01373        3.18916        0.417
       20.44611       18.09288       29.65720       -0.834
       21.29029       18.25794       30.07714        0.417
       20.36276       18.78804       29.00449        0.417
       10.71607       19.09311       18.27747       -0.834
       11.37563       18.68360       17.71754        0.417
       11.05131       19.97530       18.43742        0.417
       12.13463       25.63552       15.78644       -0.834
       11.67330       25.11001       15.13281        0.417
       12.81088       25.05168       16.13000        0.417
       14.03317       19.75443       23.44394       -0.834
       14.98324       19.71592       23.33392        0.417
       13.82109       20.68527       23.37469        0.417
       11.00491       10.89440        3.93682       -0.834
       11.33968       11.64719        3.44952        0.417
       11.57124       10.83547        4.70628        0.417
       26.06280       23.18185       15.94508       -0.834
       25.42570       23.89495       15.90232        0.417
       26.90351       23.61896       16.08069        0.417
       30.03462        9.47596       15.85732       -0.834
       30.02801       10.39654       15.59516        0.417
       30.30605        9.00415       15.06995        0.417
       18.23004       22.24415       28.30210       -0.834
       17.87645       22.64581       29.09574        0.417
       18.96613       22.80477       28.05689        0.417
        9.77332        8.52036       15.49497       -0.834
        8.93980        8.98359       15.57800        0.417
       10.24030        8.71927       16.30651        0.417
       21.65072        6.78588       13.16925       -0.834
       20.74141        6.93316       13.42943        0.417
       21.91251        7.60050       12.74018        0.417
       29.46570       18.81915       10.99032       -0.834
       29.01325       19.53645       11.43417        0.417
       29.17598       18.03141       11.45048        0.417
       19.94946       20.06167       27.87819       -0.834
       19.56617       19.44120       27.25824        0.417
       19.24685       20.68639       28.05789        0.417
        9.37315        9.43722       19.16643       -0.834
        9.99859        9.04540       19.77596        0.417
        9.90955        9.97814       18.58686        0.417
        8.17534       13.53852       12.89195       -0.834
        8.26197       12.67094       12.49693        0.417
        8.83370       13.55275       13.58663        0.417
        5.94451       11.90291       16.92253       -0.834
        5.26008       12.55511       16.77283        0.417
        6.53719       12.31669       17.55002        0.417
       27.52040       12.00330       16.18090       -0.834
       28.20666       12.12482       15.52478        0.417
       27.09873       11.17922       15.93735        0.417
       15.92466       11.90132       11.28272       -0.834
       15.18375       12.22154       10.76819        0.417
       15.54141       11.64507       12.12158        0.417
       11.65329       23.95666       13.31218       -0.834
       12.25900       23.29266       12.98287        0.417
       10.78412       23.58836       13.15366        0.417
        3.40915       17.38855       13.73439       -0.834
        3.37820       18.33464       13.59228        0.417
        3.46400       17.29032       14.68495        0.417
       15.99971       22.60740       18.52942       -0.834
       16.53612       21.89201       18.18779        0.417
       16.53028       23.39210       18.39169        0.417
       16.43290       16.37922       10.59515       -0.834
       16.58445       15.53386       11.01781        0.417
       15.48096       16.47942       10.59341        0.417
       25.03209       12.06098       21.11079       -0.834
       25.47384       12.52423       20.39912        0.417
       25.40386       11.17916       21.09033        0.417
       24.70631       13.62376       26.29119       -0.834
       24.91017       14.50816       25.98703        0.417
       25.15013       13.04767       25.66879        0.417
        9.66448       23.65796        9.14438       -0.834
        9.59178       24.13085        8.31533        0.417
       10.23522       24.20538        9.68366        0.417
       15.44997        9.21175       21.40652       -0.834
       16.40379        9.27586       21.45500        0.417
       15.17151        9.08562       22.31359        0.417
       20.01525       15.76144       10.82203       -0.834
       19.11792       15.63195       11.12904        0.417
       20.33793       14.87798       10.64429        0.417
       29.99130       18.62616       19.14342       -0.834
       29.89064       18.45183       18.20762        0.417
       30.18923       19.56133       19.19339        0.417
       11.56668        3.70596       22.76440       -0.834
       11.99678        4.50328       23.07348        0.417
       12.11370        2.99407       23.09639        0.417
       22.86677       17.18027       26.41403       -0.834
       22.95499       17.05640       27.35907        0.417
       23.03499       18.11262       26.27745        0.417
       22.16897       27.02896       18.10053       -0.834
       22.16518       26.65873       17.21784        0.417
       23.07468       26.93585       18.39594        0.417
       13.76220       14.26419       30.09265       -0.834
       13.34117       15.10093       30.28971        0.417
       13.77068       14.21909       29.13655        0.417
       13.09015       30.64614       22.58024       -0.834
       12.21051       30.63380       22.20299        0.417
       13.60163       30.06676       22.01549        0.417
       22.25798       13.51823        8.34757       -0.834
       21.49389       13.07420        8.71531        0.417
       21.99326       14.43565        8.28061        0.417
       24.76711       23.60136       26.76493       -0.834
       24.64428       23.24569       25.88479        0.417
       25.35306       24.34827       26.64232        0.417
       27.61850       19.12773        7.43568       -0.834
       27.64156       20.03910        7.72740        0.417
       28.37011       18.71920        7.86511        0.417
       15.17098        2.41848       19.86039       -0.834
       15.07807        2.57318       18.92035        0.417
       16.08829        2.16934       19.97309        0.417
       18.07211        2.25257       20.35983       -0.834
       18.43158        2.60722       21.17299        0.417
       18.27088        2.91673       19.69981        0.417
       13.40769       17.62113       21.91282       -0.834
       12.83326       17.10049       22.47425        0.417
       13.56290       18.42532       22.40822        0.417
        6.58171       17.57436       27.05459       -0.834
        6.02528       18.25758       27.42851        0.417
        6.11476       16.75867       27.23581        0.417
       22.48969        8.91829       20.76767       -0.834
       21.80565        8.25015       20.72399        0.417
       23.30642        8.43380       20.64753        0.417
       21.70880       21.28803       19.42878       -0.834
       21.62717       20.51432       18.87117        0.417
       21.35471       22.00321       18.90023        0.417
       16.87290       10.33372       27.13311       -0.834
       16.61060       10.62166       26.25874        0.417
       16.29973       10.81813       27.72730        0.417
       26.68902       23.74381       22.30431       -0.834
       26.60620       23.93236       21.36953        0.417
       25.97179       24.22956       22.71158        0.417
       12.47959        3.65549       13.30565       -0.834
       13.20980        4.14774       12.93053        0.417
       12.13378        3.14425       12.57402        0.417
       16.08635       18.38661       28.03125       -0.834
       16.89993       18.84508       28.24129        0.417
       15.93176       18.58317       27.10729        0.417
        6.87377       24.44461        8.88539       -0.834
        7.71132       24.02375        9.07931        0.417
        6.77938       24.36521        7.93617        0.417
       12.18189       18.99761        7.10606       -0.834
       11.36338       19.48628        7.01961        0.417
       12.46457       18.84159        6.20496        0.417
        9.69286       28.91023       12.78615       -0.834
        9.57975       27.96001       12.76347        0.417
       10.64115       29.03949       12.76961        0.417
       27.99579       26.28320       14.70714       -0.834
       28.65239       26.85063       14.30323        0.417
       27.17665       26.77267       14.63189        0.417
       26.25834       23.50208       19.27387       -0.834
       26.66546       22.71290       18.91654        0.417
       25.49462       23.18182       19.75388        0.417
       12.51887       29.79283       12.47990       -0.834
       13.16989       29.35622       13.02923        0.417
       12.29020       30.58655       12.96358        0.417
       23.58890       18.12661       20.56428       -0.834
       23.73307       18.43892       19.67102        0.417
       24.46532       17.92625       20.89285        0.417
       27.34363       21.29975        9.25999       -0.834
       27.00858       20.74319        9.96299        0.417
       28.16211       21.65610        9.60543        0.417
       19.07496       22.09081       14.16937       -0.834
       18.32206       22.68116       14.13979        0.417
       18.70108       21.23548       14.38113        0.417
       17.09118       11.75726        3.16128       -0.834
       17.74072       12.30483        3.60228        0.417
       16.24783       12.09810        3.45931        0.417
       15.54270       18.08323        5.54564       -0.834
       15.79533       17.28630        6.01180        0.417
       14.61047       17.96819        5.36141        0.417
        8.56344        8.10704       12.72739       -0.834
        8.10058        8.21055       13.55882        0.417
        9.32065        7.56167       12.94054        0.417
       17.54496       23.90774       24.84777       -0.834
       18.29322       23.47307       24.43863        0.417
       17.92959       24.62751       25.34799        0.417
        5.51015       12.49957        8.32394       -0.834
        6.22813       13.12738        8.24281        0.417
        4.81083       12.86325        7.78089        0.417
        4.04023       16.80878       20.67047       -0.834
        4.61501       16.75439       19.90698        0.417
        3.71775       15.91580       20.79220        0.417
       22.07408       22.38189        8.04968       -0.834
       21.87895       23.26612        8.35999        0.417
       21.49732       21.81509        8.56185        0.417
       11.10225       30.95596       20.48302       -0.834
       11.49425       30.46888       19.75824        0.417
       11.31601       31.87099       20.30065        0.417
        7.70918       26.87786        9.85032       -0.834
        7.40110       25.97281        9.80322        0.417
        7.66993       27.09658       10.78137        0.417
       27.90488        7.89275       16.95672       -0.834
       27.18407        8.17688       16.39463        0.417
       28.65272        8.41795       16.67187        0.417
       22.21318       24.42069       22.36220       -0.834
       23.01344       24.76905       22.75520        0.417
       21.69082       25.19546       22.15457        0.417
       18.34303       27.60793       23.02888       -0.834
       17.47244       27.38204       22.70135        0.417
       18.23395       28.47320       23.42343        0.417
       24.51493       25.61501       15.97463       -0.834
       24.76799       26.00198       16.81275        0.417
       24.37703       26.36490       15.39595        0.417
       23.86143       15.18330        4.33985       -0.834
       23.97351       15.82239        5.04359        0.417
       23.14750       15.53482        3.80788        0.417
       21.30911       20.69480       11.91546       -0.834
       21.27285       21.60206       12.21842        0.417
       20.92771       20.71941       11.03787        0.417
        4.52901       13.18770       11.54434       -0.834
        4.67201       13.54232       12.42186        0.417
        5.00738       13.78075       10.96495        0.417
       23.40160       18.99503        7.78696       -0.834
       23.70059       19.87277        8.02444        0.417
       23.48112       18.48768        8.59474        0.417
       18.76608       16.60007       30.96956       -0.834
       18.91702       16.89303       31.86824        0.417
       19.18849       17.26528       30.42615        0.417
        9.51161       21.08637       14.46879       -0.834
        9.79342       20.47628       13.78717        0.417
        9.18659       20.52572       15.17325        0.417
       24.75459        6.95444       20.45706       -0.834
       25.12285        6.17015       20.05023        0.417
       24.67002        6.72729       21.38306        0.417
       16.64836       18.65392       25.41608       -0.834
       17.47801       18.19657       25.27913        0.417
       16.84559       19.57100       25.22558        0.417
       25.68286       14.22355       16.10149       -0.834
       26.19334       13.46327       15.82288        0.417
       26.33297       14.91331       16.23495        0.417
        9.55576       20.00209        7.24025       -0.834
        9.02378       19.25919        6.95507        0.417
        9.03700       20.41858        7.92848        0.417
        4.36226       15.52637        9.75929       -0.834
        3.77788       15.13475       10.40842        0.417
        3.80391       16.12618        9.26461        0.417
       14.75367       20.53159        4.99383       -0.834
       15.08797       19.63483        4.97638        0.417
       15.33811       20.99393        5.59458        0.417
       21.98452        8.82281        8.60524       -0.834
       21.84688        9.74530        8.39004        0.417
       22.62411        8.51897        7.96116        0.417
       10.18066        8.10062       26.12437       -0.834
       10.51524        8.22319       25.23597        0.417
        9.25689        7.88027       26.00464        0.417
       18.42872       30.70847       11.54158       -0.834
       19.23574       30.19434       11.51668        0.417
       18.71691       31.61342       11.42226        0.417
       22.71203       16.20453       11.87447       -0.834
       21.80337       15.99933       11.65433        0.417
       22.98281       15.49712       12.45968        0.417
       22.05425       11.25212       19.51807       -0.834
       22.03806       10.46272       20.05920        0.417
       22.89462       11.21290       19.06149        0.417
       19.62586       24.03137       10.66099       -0.834
       20.18902       23.78810       11.39577        0.417
       20.18567       23.94199        9.88972        0.417
       25.33784       24.39835        9.34179       -0.834
       24.81433       25.13655        9.02998        0.417
       25.22360       24.40755       10.29210        0.417
       12.40818       27.61772       10.47260       -0.834
       11.76089       27.79075        9.78899        0.417
       12.24935       28.29475       11.13037        0.417
       16.87179       28.39877       25.99451       -0.834
       16.73527       28.79480       25.13384        0.417
       15.98898       28.23094       26.32422        0.417
       19.58407        9.61309        9.87965       -0.834
       19.10929        8.81597       10.11507        0.417
       20.38216        9.30014        9.45380        0.417
       19.89156        9.65030       16.17695       -0.834
       20.38201        9.07932       16.76829        0.417
       20.55663       10.02742       15.60102        0.417
       25.26963       18.22075       17.93934       -0.834
       24.98175       18.93067       17.36542        0.417
       25.87872       17.71172       17.40442        0.417
       13.03165       11.97940        5.47545       -0.834
       13.75778       12.29723        4.93885        0.417
       13.20881       12.32735        6.34939        0.417
       11.05056       20.90168       11.78066       -0.834
       10.50851       21.49401       11.25955        0.417
       11.77708       20.66980       11.20219        0.417
        8.46832       23.69303       26.91390       -0.834
        7.64474       24.15925       27.05737        0.417
        8.20674       22.85686       26.52838        0.417
       18.30056       15.42017        4.85441       -0.834
       19.02561       14.80853        4.98260        0.417
       18.18663       15.46170        3.90490        0.417
       16.30307       15.61784       31.33375       -0.834
       17.22649       15.76015       31.12569        0.417
       15.97233       15.08864       30.60794        0.417
        8.59818       14.52394       22.92763       -0.834
        7.87860       13.89443       22.97399        0.417
        8.67571       14.86582       23.81833        0.417
       18.46962       30.54634       17.17930       -0.834
       19.32602       30.31908       16.81714        0.417
       18.40924       30.03934       17.98895        0.417
       19.20493        9.91787       29.86692       -0.834
       19.24283       10.56299       29.16080        0.417
       19.66266        9.15302       29.51804        0.417
       15.79181       10.99322       24.70105       -0.834
       15.00030       11.27974       24.24538        0.417
       16.50623       11.43478       24.24186        0.417
       23.74413       26.61742        8.64792       -0.834
       24.10327       27.41269        9.04136        0.417
       23.30660       26.91986        7.85210        0.417
        7.50111       16.93295       21.98599       -0.834
        7.32548       17.14564       22.90259        0.417
        8.02230       16.13086       22.02136        0.417
        6.46439       17.61162       15.94060       -0.834
        6.20755       17.09080       16.70153        0.417
        5.70007       18.15676       15.75386        0.417
        7.01012       10.33478        7.38084       -0.834
        6.63788       10.14587        6.51945        0.417
        6.42007       10.98640        7.75960        0.417
       26.12659       18.00972       27.43821       -0.834
       26.82582       17.40696       27.18524        0.417
       25.97976       18.54715       26.65985        0.417
       16.40581        8.78960       10.84024       -0.834
       16.70141        9.67770       11.04054        0.417
       15.48814        8.77506       11.11211        0.417
        9.97079        4.17581       14.58737       -0.834
       10.85245        3.81933       14.47862        0.417
        9.52397        3.96523       13.76747        0.417
       18.92629       11.88934       20.18776       -0.834
       19.77867       11.77721       19.76692        0.417
       18.73010       12.82089       20.08802        0.417
       11.81688        9.38244        6.68721       -0.834
       12.58416        9.75007        6.24862        0.417
       11.90598        8.43618        6.57368        0.417
       16.53701       12.28594       31.57142       -0.834
       16.90934       12.81305       32.27835        0.417
       17.07035       12.50002       30.80595        0.417
       16.15449        5.21701       22.83064       -0.834
       16.19662        4.83833       23.70874        0.417
       16.15316        6.16295       22.97703        0.417
       16.92552        7.66210       27.46091       -0.834
       16.17477        7.44578       28.01390        0.417
       16.96899        8.61815       27.47851        0.417
       17.76740       13.26962       29.37597       -0.834
       18.61205       13.39802       28.94435        0.417
       17.26368       14.05314       29.15552        0.417
       24.48090       17.31621        5.92320       -0.834
       24.01499       17.59998        6.70973        0.417
       25.34336       17.72525        5.99446        0.417
        4.40792       18.70068       11.13776       -0.834
        4.59873       19.02056       10.25599        0.417
        5.20129       18.23410       11.40068        0.417
       18.22627        9.92041       21.79614       -0.834
       17.93066       10.32619       22.61111        0.417
       18.50357       10.65523       21.24898        0.417
       12.57936       17.19865        8.99540       -0.834
       12.93199       16.42632        8.55337        0.417
       12.42406       17.82818        8.29126        0.417
        6.63884       24.63623       15.80207       -0.834
        6.55099       23.94188       16.45505        0.417
        7.43800       25.10038       16.05135        0.417
       11.39490       24.32560       26.46855       -0.834
       11.34030       24.68935       25.58484        0.417
       10.52712       23.95514       26.62962        0.417
       14.05314       21.73340       26.92250       -0.834
       13.99853       22.31510       27.68071        0.417
       14.76872       22.09091       26.39680        0.417
       12.40408       15.04013       27.52584       -0.834
       11.81494       14.75464       26.82752        0.417
       12.85223       15.80470       27.16413        0.417
       15.65453       26.98443       16.28231       -0.834
       16.06407       26.99995       15.41729        0.417
       15.01981       27.70058       16.26022        0.417
       10.15659       30.18823       16.64116       -0.834
       10.68302       30.52624       17.36562        0.417
       10.79400       29.97974       15.95817        0.417
        8.77409       19.38410       16.36563       -0.834
        9.39728       19.19661       17.06756        0.417
        8.08925       18.72353       16.46994        0.417
       20.55317       12.71636       23.79960       -0.834
       20.21152       12.89454       24.67582        0.417
       20.82295       13.57298       23.46844        0.417
       17.93310       20.62998       30.90717       -0.834
       18.52585       20.40884       31.62549        0.417
       17.32261       19.89397       30.86455        0.417
       13.76899       21.42385       11.45636       -0.834
       14.00741       22.00107       12.18176        0.417
       13.83853       21.97593       10.67752        0.417
       14.80499       24.39943       11.30555       -0.834
       15.30969       23.97322       10.61283        0.417
       15.03273       25.32629       11.23282        0.417
       14.86922       24.06722       25.30676       -0.834
       15.74559       23.90184       24.95910        0.417
       14.30166       23.46814       24.82178        0.417
       17.19843       18.36065        3.29885       -0.834
       16.75901       17.99334        4.06583        0.417
       18.11597       18.10933        3.40467        0.417
       29.07203       21.65269       22.49982       -0.834
       28.41733       22.29585       22.22790        0.417
       29.73553       22.16588       22.96094        0.417
        8.41659       16.82051        5.37739       -0.834
        8.44412       16.82091        6.33419        0.417
        7.48398       16.85198        5.16413        0.417
       26.99963       15.22549        6.25979       -0.834
       27.86413       15.61396        6.12581        0.417
       26.61861       15.72995        6.97852        0.417
       12.88287       19.59794       25.68910       -0.834
       13.29383       20.37814       26.06145        0.417
       13.15314       19.59939       24.77085        0.417
       20.21756       13.75367       26.28256       -0.834
       20.56805       14.35445       25.62496        0.417
       20.08098       14.29899       27.05729        0.417
       21.68703       16.74638        3.23375       -0.834
       20.86306       16.93773        2.78575        0.417
       22.29752       17.40660        2.90566        0.417
       21.78176       10.04664       14.42099       -0.834
       21.55808        9.77140       13.53192        0.417
       22.25487       10.87066       14.30523        0.417
        8.45385       13.57274       26.68741       -0.834
        7.79064       13.49504       26.00159        0.417
        7.97658       13.41420       27.50185        0.417
       10.54015       25.29193       23.90799       -0.834
        9.94046       24.92813       23.25665        0.417
       10.12793       26.11096       24.18274        0.417
        6.88017       14.84641        9.56672       -0.834
        6.00352       15.22535        9.50252        0.417
        7.31154       15.35454       10.25372        0.417
       21.28781       30.03894       11.71062       -0.834
       21.48932       30.02184       10.77503        0.417
       22.14313       30.03997       12.14035        0.417
       24.27634       15.65342       24.13096       -0.834
       24.83013       16.14682       23.52590        0.417
       23.75616       16.32067       24.57864        0.417
       21.17540       15.71696       24.58783       -0.834