%Nproc=32
%Mem=120Gb
%chk=temp.chk
#p cam-b3lyp/6-31+G(d,p) nosymm charge Freq 

Calculation for S0 with freq for abs spect

0  1
 C         16.30833       15.95371       15.25963
 C         17.70646       17.14936       16.89888
 C         16.85007       16.89234       17.91155
 C         15.52904       16.34906       17.60415
 N         15.32428       15.99090       16.27517
 H         18.74435       17.57139       16.92143
 H         17.16216       17.15682       18.95676
 O         14.58719       16.22530       18.39413
 O         16.06707       15.55094       14.16557
 N         17.44614       16.69776       15.66857
 H         18.28508       16.61807       15.08692
 H         14.37798       15.74606       15.98418
 O         19.99785       16.32756       14.28146
 H         20.53603       15.54621       14.40823
 H         20.48451       16.85384       13.64709
 O         19.79134       13.74419       18.06246
 H         19.80207       13.81219       17.10774
 H         20.65502       13.39875       18.28818
 O         13.39889       15.30961       12.73625
 H         14.18151       15.50113       12.21947
 H         13.57016       15.71016       13.58858
 O         18.07609       13.66713       13.65336
 H         17.73746       13.58555       12.76179
 H         17.41005       14.17422       14.11758
 O         13.83269       13.22001       19.14877
 H         13.82972       14.16880       19.02225
 H         13.76307       13.10404       20.09637
 O         20.02776       13.54888       15.45168
 H         20.76590       13.05829       15.09015
 H         19.36424       13.52693       14.76212
 O         17.16934       19.58779       13.99276
 H         16.86663       19.86044       13.12659
 H         16.36628       19.44505       14.49370
 O         12.99504       17.07620       14.78011
 H         12.51173       17.54614       14.10056
 H         12.37325       16.99346       15.50314
 O         16.86138       14.30101       11.31235
 H         17.25035       14.74665       10.55980
 H         16.72618       14.99434       11.95830
 O         16.21735       11.85328       16.07524
 H         16.96607       11.92847       15.48364
 H         16.60689       11.75598       16.94416
 O         17.68720       13.87939       19.84347
 H         18.36548       13.88667       19.16811
 H         18.08427       14.33250       20.58729
 O         15.14057       20.09292       18.37001
 H         14.53194       19.89657       19.08222
 H         14.67320       19.83254       17.57628
 O         18.86713       19.24895       19.37965
 H         19.81181       19.31933       19.51694
 H         18.73846       19.49759       18.46430
 O         19.00534       20.49976       16.44885
 H         18.50751       20.40007       15.63739
 H         19.89231       20.71605       16.16121
 O         14.73705       19.35258       15.53011
 H         14.33879       19.81826       14.79475
 H         14.54046       18.43045       15.36500
 O         11.90641       16.15039       17.77115
 H         11.75055       15.86186       18.67042
 H         12.85575       16.25918       17.71515
 
       27.26053        6.56332       12.18920       -0.834
       27.19371        7.51561       12.11906        0.417
       27.10505        6.24567       11.29973        0.417
       11.33142       20.30652       12.76482       -0.834
       11.03197       19.40717       12.89792        0.417
       10.52770       20.82577       12.73926        0.417
       12.91768       25.94741        4.69307       -0.834
       12.87012       25.89677        3.73839        0.417
       13.31894       25.11962        4.95761        0.417
        4.63077       15.97542       16.02396       -0.834
        5.42333       15.84960       16.54574        0.417
        4.74492       15.39605       15.27061        0.417
       22.83847       25.21607        7.39584       -0.834
       23.23970       25.46742        8.22774        0.417
       21.96767       24.89903        7.63548        0.417
       15.16529       24.72526       28.46551       -0.834
       15.61052       25.37296       29.01185        0.417
       15.85155       24.38108       27.89382        0.417
        8.72077       10.78716       19.06436       -0.834
        9.38067       10.56737       18.40675        0.417
        8.07146       10.08719       18.99606        0.417
       19.22706       13.10192       24.19139       -0.834
       18.60880       13.82729       24.10309        0.417
       19.68007       13.06880       23.34882        0.417
       20.37603       27.44996       14.56822       -0.834
       19.47204       27.76411       14.54967        0.417
       20.57942       27.25005       13.65449        0.417
       12.48683        8.92512       29.21017       -0.834
       11.74839        9.21334       28.67364        0.417
       12.37168        9.38307       30.04279        0.417
       14.68529       21.76158       20.42503       -0.834
       15.51195       21.43994       20.06529        0.417
       14.86052       21.88235       21.35827        0.417
       18.19638       16.73154       23.71401       -0.834
       17.82948       16.76524       24.59745        0.417
       17.45005       16.52341       23.15196        0.417
       16.43372        9.23310       23.87579       -0.834
       16.88393        8.43906       23.58761        0.417
       17.12388        9.77482       24.25847        0.417
       16.92447       11.30008       18.65135       -0.834
       17.40000       12.09948       18.87733        0.417
       16.41334       11.09543       19.43436        0.417
       11.03178        7.14158       10.66971       -0.834
       10.36538        7.04272        9.98973        0.417
       11.12549        8.08800       10.77809        0.417
       23.88877       27.27120        9.20290       -0.834
       24.11878       27.26418       10.13203        0.417
       24.70097       27.03876        8.75285        0.417
       20.25871       18.47455        9.87008       -0.834
       20.20770       18.28664        8.93290        0.417
       21.19609       18.54796       10.04945        0.417
       17.06157        9.57795        6.62933       -0.834
       17.33335        9.83183        7.51133        0.417
       16.30068       10.12862        6.44484        0.417
       20.43500       14.83852       26.07630       -0.834
       19.72822       14.72255       26.71131        0.417
       20.38532       14.06288       25.51760        0.417
       22.92941       17.65577        5.32166       -0.834
       23.21842       17.25135        6.13968        0.417
       22.44560       18.43453        5.59678        0.417
        7.93739       26.23711       14.76702       -0.834
        7.45473       26.17884       13.94248        0.417
        7.35681       26.72511       15.35099        0.417
        6.75828       17.14727       12.60837       -0.834
        6.24787       17.93468       12.79731        0.417
        6.12605       16.43115       12.66906        0.417
       16.98495       11.93223        3.52689       -0.834
       16.91678       11.04570        3.17242        0.417
       16.07784       12.21141        3.65114        0.417
        9.39715       11.79943       12.34419       -0.834
        8.81148       12.50061       12.62981        0.417
       10.21395       12.24534       12.12008        0.417
       10.28725       10.23284       17.13533       -0.834
       10.69185       11.05973       16.87306        0.417
       10.58666        9.60115       16.48146        0.417
       19.43171       10.89779       11.22033       -0.834
       18.91647       10.67490       10.44504        0.417
       19.64326       11.82473       11.10955        0.417
        6.17781       14.00322       26.16225       -0.834
        6.34992       13.06519       26.08037        0.417
        6.87520       14.32626       26.73281        0.417
       23.35277       25.24640       19.42881       -0.834
       23.42636       24.96363       20.34032        0.417
       22.68182       25.92894       19.44270        0.417
       19.61613       22.12298       27.88916       -0.834
       20.36419       21.54632       27.73390        0.417
       20.00119       22.92702       28.23771        0.417
        4.21374       13.18824       20.53009       -0.834
        4.61458       12.37946       20.21158        0.417
        4.89750       13.60444       21.05496        0.417
       29.09009       21.35481       15.06797       -0.834
       29.78820       22.00432       15.15163        0.417
       28.28189       21.85548       15.17917        0.417
        6.85087       18.68220        7.39844       -0.834
        6.34775       19.21683        6.78421        0.417
        6.84194       19.18199        8.21475        0.417
       11.13091       28.33337       22.46335       -0.834
       11.03104       29.22720       22.79095        0.417
       11.75546       27.92614       23.06363        0.417
       16.68021       17.91954        4.89299       -0.834
       17.54824       17.94408        4.49030        0.417
       16.74919       18.50420        5.64774        0.417
       10.02075        6.44033       17.32275       -0.834
       10.73537        6.94826       17.70689        0.417
        9.35237        7.09096       17.10785        0.417
       12.50330       10.26474        7.37876       -0.834
       12.65699       11.04044        7.91810        0.417
       12.96129        9.55970        7.83635        0.417
       12.62771       16.35376       20.99050       -0.834
       11.79482       16.41173       21.45865        0.417
       12.57283       15.53122       20.50404        0.417
       17.96750       28.31813       13.57297       -0.834
       17.42851       27.82363       12.95556        0.417
       17.36738       28.55314       14.28069        0.417
       19.91749       27.04640        9.43762       -0.834
       19.18879       27.35700        9.97498        0.417
       20.65611       26.99078       10.04390        0.417
       20.90729       19.66115        5.84840       -0.834
       21.36762       20.33166        5.34369        0.417
       20.38651       20.15362        6.48282        0.417
       19.35352       12.36460        4.81095       -0.834
       18.68295       12.29299        4.13168        0.417
       19.75646       11.49693        4.84280        0.417
       20.21181        8.15362       10.32126       -0.834
       20.46102        8.74012        9.60702        0.417
       19.94057        8.73865       11.02865        0.417
       15.94003       17.26068       11.44584       -0.834
       15.07624       17.25585       11.03343        0.417
       16.21824       18.17583       11.40942        0.417
       29.96136       17.08314       18.05729       -0.834
       30.40091       17.93112       18.12021        0.417
       30.62604       16.49421       17.70009        0.417
        6.18368       16.70703       19.58678       -0.834
        6.49997       16.22298       18.82397        0.417
        6.94729       16.77785       20.15960        0.417
       10.50179       13.91311       25.34406       -0.834
       10.81374       13.62756       26.20278        0.417
        9.71262       14.42109       25.53216        0.417
        8.27682       13.46459       19.40461       -0.834
        7.57984       13.47385       20.06063        0.417
        8.63735       12.57904       19.44998        0.417
       11.85340       15.61650        8.51523       -0.834
       11.18088       15.29537        9.11591        0.417
       11.82262       15.01092        7.77459        0.417
       13.46959        3.78675        8.62354       -0.834
       12.87149        4.34270        8.12411        0.417
       13.29184        4.00435        9.53858        0.417
       22.43631       12.27308       25.45143       -0.834
       22.82988       13.03403       25.02448        0.417
       22.14294       11.71768       24.72915        0.417
       13.93441       11.04258       30.71461       -0.834
       13.36235       11.80194       30.82572        0.417
       14.35687       11.18232       29.86713        0.417
       15.02202       27.49205       17.42295       -0.834
       14.27119       27.10174       16.97557        0.417
       15.46681       26.75179       17.83575        0.417
       10.17740       24.85462       15.61699       -0.834
        9.99000       24.13382       16.21829        0.417
        9.33227       25.28495       15.48741        0.417
        9.95458        6.31310       26.58333       -0.834
        9.46201        6.06653       25.80050        0.417
       10.79563        6.62504       26.24931        0.417
       16.05034       16.08883       22.40485       -0.834
       15.53873       16.85844       22.15548        0.417
       15.68208       15.37628       21.88246        0.417
       12.67164       22.49124       29.28257       -0.834
       11.92165       21.94649       29.04382        0.417
       12.86575       22.99273       28.49070        0.417
       12.27606       12.36199       12.65952       -0.834
       12.81681       13.09964       12.37723        0.417
       12.75877       11.97654       13.39072        0.417
       20.23084       16.64946       28.34706       -0.834
       20.27616       17.02365       27.46720        0.417
       19.29390       16.57657       28.52889        0.417
        7.09243       15.10598       17.24893       -0.834
        7.68060       15.53051       16.62438        0.417
        7.54678       14.30097       17.49743        0.417
       24.69416       14.74817        5.03338       -0.834
       24.82151       15.17653        4.18690        0.417
       25.27230       13.98579        5.00593        0.417
       16.67857       24.66237       21.89684       -0.834
       17.39467       24.04119       22.02941        0.417
       15.97328       24.33871       22.45724        0.417
       18.31393       29.20233       24.36339       -0.834
       17.93646       30.08196       24.36150        0.417
       17.74319       28.69751       24.94274        0.417
       25.32467       19.55973       13.65999       -0.834
       24.57527       20.11024       13.88709        0.417
       25.03279       19.05954       12.89786        0.417
       29.01140       10.24732       18.45610       -0.834
       29.54356       10.97077       18.78723        0.417
       29.49368        9.45978       18.70792        0.417
       19.32007       10.53653       24.78765       -0.834
       19.71010       10.33402       23.93730        0.417
       19.37272       11.48991       24.85489        0.417
       13.84191       11.67278       15.03368       -0.834
       14.64799       11.76476       15.54162        0.417
       13.75588       10.73056       14.88858        0.417
       23.09565       16.75884        8.11888       -0.834
       22.40474       16.27992        8.57659        0.417
       23.90817       16.44763        8.51787        0.417
       22.72052       18.35488       24.08086       -0.834
       22.15625       19.11628       23.94635        0.417
       22.16654       17.60458       23.86550        0.417
       27.62769       20.45008       21.47648       -0.834
       27.54891       20.78659       20.58386        0.417
       27.27778       19.56038       21.42931        0.417
        3.28767       18.34748       16.84986       -0.834
        3.87924       17.65624       16.55243        0.417
        2.57625       18.34653       16.20945        0.417
       16.27342        6.82229       10.29932       -0.834
       16.99687        6.55328        9.73320        0.417
       15.67628        6.07420       10.29748        0.417
       14.94676       28.05139       21.26140       -0.834
       14.52479       27.25939       21.59443        0.417
       14.36756       28.35635       20.56300        0.417
       18.01074       16.43189        1.42904       -0.834
       18.76545       15.85252        1.32445        0.417
       18.28927       17.07322        2.08276        0.417
       16.75724        8.33289       12.41548       -0.834
       17.14870        7.65313       12.96404        0.417
       16.69004        7.93256       11.54861        0.417
       21.64276        2.31237       16.65704       -0.834
       21.71750        2.42197       17.60500        0.417
       21.24893        3.12947       16.35130        0.417
       14.26959       12.90014        4.04983       -0.834
       14.31750       13.83293        4.25917        0.417
       13.95337       12.87278        3.14678        0.417
       10.41933        9.97185       21.15407       -0.834
        9.92204       10.43342       20.47887        0.417
        9.75548        9.51653       21.67196        0.417
       14.54102       16.99037       29.81818       -0.834
       14.10111       16.59899       30.57285        0.417
       14.52863       17.93112       29.99444        0.417
       20.13666       21.58750        3.19556       -0.834
       20.77724       21.60267        3.90666        0.417
       20.59273       21.98392        2.45322        0.417
       13.09743        8.79181       16.58370       -0.834
       12.58050        8.72830       17.38681        0.417
       13.99730        8.62413       16.86361        0.417
       21.41591       20.89685       23.68938       -0.834
       21.20177       21.77448       23.37292        0.417
       20.56648       20.48455       23.84661        0.417
        6.92864       23.31006       13.07128       -0.834
        6.94678       23.43868       14.01962        0.417
        6.13713       23.76437       12.78258        0.417
       13.96810       20.54196       13.21018       -0.834
       13.98636       21.48199       13.38976        0.417
       13.07647       20.37307       12.90573        0.417
       11.68090       12.31248       27.91271       -0.834
       11.64850       12.21772       28.86466        0.417
       12.30802       13.02001       27.76318        0.417
       12.38533       12.46875        9.32512       -0.834
       11.48974       12.71524        9.55621        0.417
       12.93690       13.02818        9.87197        0.417
       17.60478       26.61936       11.07523       -0.834
       16.84987       27.20786       11.07130        0.417
       17.52127       26.11648       10.26507        0.417
       23.04729       19.76800       11.31906       -0.834
       22.25697       19.67959       11.85179        0.417
       23.50401       20.52269       11.69066        0.417
       23.73442        7.93434       22.68476       -0.834
       23.97994        7.95671       21.75985        0.417
       23.87701        8.82939       22.99262        0.417
       13.20458       15.10021       28.40591       -0.834
       13.93095       14.48173       28.32781        0.417
       13.61075       15.90945       28.71639        0.417
       18.35082       22.45890       22.19581       -0.834
       18.66254       22.50533       23.09963        0.417
       17.90932       21.61161       22.13746        0.417
       20.99552       11.83037        8.35401       -0.834
       21.34252       12.49418        7.75804        0.417
       21.64684       11.12912        8.33761        0.417
        8.31406       29.61755       15.84148       -0.834
        9.05197       29.48746       15.24582        0.417
        8.38333       28.89885       16.46990        0.417
       18.49950       18.01198       31.25661       -0.834
       19.41934       18.04292       31.51955        0.417
       18.07328       18.67832       31.79565        0.417
       25.23658       17.63176       27.54695       -0.834
       25.97565       17.08464       27.81279        0.417
       24.58140       17.01136       27.22745        0.417
        8.71363       18.98340       11.28662       -0.834
        8.00238       18.49123       11.69667        0.417
        8.94114       18.47356       10.50910        0.417
       19.47637        7.97457       18.82782       -0.834
       19.74278        8.80436       19.22368        0.417
       18.96720        8.22843       18.05806        0.417
       12.90489       19.37659       30.92651       -0.834
       12.29227       19.23362       30.20506        0.417
       12.39724       19.18250       31.71445        0.417
       25.31865       15.99124        9.64267       -0.834
       26.10958       15.71379        9.18041        0.417
       25.63430       16.58711       10.32204        0.417
       24.57730       11.60799       16.37340       -0.834
       24.78739       11.51389       17.30251        0.417
       25.22614       11.06599       15.92455        0.417
       29.24003       21.16025       10.20766       -0.834
       28.41482       20.89228       10.61195        0.417
       28.98119       21.56695        9.38072        0.417
       15.33840       26.10429       13.50618       -0.834
       14.57377       26.63361       13.73289        0.417
       15.00658       25.45784       12.88310        0.417
        9.24005       19.19883       16.23885       -0.834
        9.98766       19.79336       16.30086        0.417
        8.48180       19.74404       16.44869        0.417
        9.29177       16.87222       26.08605       -0.834
        8.78677       17.68410       26.13135        0.417
       10.00624       16.99885       26.71033        0.417
        4.71782       19.20298       12.92231       -0.834
        4.04259       19.03486       13.57960        0.417
        4.29287       19.00938       12.08675        0.417
       14.83912       29.73420       23.39476       -0.834
       14.84575       29.33827       22.52331        0.417
       15.13717       30.63259       23.25244        0.417
       24.32775       29.20184       16.09990       -0.834
       25.07326       29.80132       16.13271        0.417
       23.95132       29.23865       16.97921        0.417
       16.79877        3.03314       11.50608       -0.834
       17.58053        2.55874       11.22321        0.417
       16.43530        3.39919       10.69977        0.417
        3.53257       23.35983       18.22238       -0.834
        3.13724       24.21174       18.40730        0.417
        2.83843       22.86177       17.79072        0.417
       24.71065       18.13161       16.08798       -0.834
       24.72402       18.96851       16.55236        0.417
       24.86399       18.36299       15.17191        0.417
       13.65269       25.58127       21.86076       -0.834
       13.26785       25.11009       21.12176        0.417
       14.02740       24.89559       22.41364        0.417
       20.17116       23.53346       20.20432       -0.834
       20.25351       23.86501       19.31016        0.417
       19.34190       23.05540       20.20759        0.417
       21.49422       17.31908       12.15291       -0.834
       22.25306       16.89534       11.75187        0.417
       20.81483       17.28172       11.47966        0.417
        8.69476        9.34261       13.74593       -0.834
        8.74364       10.17970       13.28429        0.417
        9.60254        9.13975       13.97182        0.417
       11.03673       14.35675       19.84745       -0.834
       11.10760       13.93729       20.70492        0.417
       10.12482       14.22257       19.58928        0.417
        9.34606       10.62321       24.75745       -0.834
        8.80322       11.39806       24.90293        0.417
        8.90681       10.15193       24.04951        0.417
       19.92648       19.58929       13.28738       -0.834
       18.98302       19.62580       13.44480        0.417
       20.08541       18.69400       12.98833        0.417
       13.77777        3.02843       13.41048       -0.834
       14.72986        3.07955       13.32605        0.417
       13.55220        2.16484       13.06469        0.417
       27.49114       21.30844       18.86807       -0.834
       27.60591       20.55760       18.28558        0.417
       28.24918       21.86608       18.69299        0.417
       23.20634       28.07405       20.99719       -0.834
       23.23745       28.97495       21.31915        0.417
       23.98523       27.98865       20.44740        0.417
       18.38135       10.72590       14.43385       -0.834
       18.91320       11.42298       14.04988        0.417
       17.80249       10.44719       13.72430        0.417
       29.98477       15.53714       10.62118       -0.834
       30.69871       14.98574       10.30107        0.417
       30.18924       16.41128       10.28907        0.417
       30.21556       22.52330       18.09717       -0.834
       29.81698       23.33339       17.77918        0.417
       31.08678       22.78524       18.39483        0.417
       22.64315        5.25366       22.13709       -0.834
       21.91156        5.47314       21.56017        0.417
       22.98448        6.10046       22.42458        0.417
       13.42862       21.26623        4.80423       -0.834
       14.02773       21.38199        4.06672        0.417
       12.68831       20.78218        4.43834        0.417
        9.24848       21.80506       12.17805       -0.834
        8.92163       21.00937       11.75818        0.417
        8.46870       22.34413       12.31061        0.417
        2.04080       18.55479       13.70359       -0.834
        1.84750       19.14476       12.97502        0.417
        1.18181       18.29849       14.03925        0.417
       11.51948        9.34979        4.35701       -0.834
       12.35670        9.15472        3.93599        0.417
       11.74889        9.55656        5.26301        0.417
       24.87878       17.17172        3.27221       -0.834
       25.67473       17.54844        3.64743        0.417
       24.20944       17.30833        3.94270        0.417
       14.28810       24.83672        9.33467       -0.834
       14.11841       25.77695        9.39292        0.417
       13.93194       24.47778       10.14741        0.417
       27.62941       16.52085        7.79185       -0.834
       27.47734       16.79481        6.88739        0.417
       27.62470       17.33603        8.29354        0.417
       15.42449        7.76947       17.89630       -0.834
       15.58443        7.54047       18.81184        0.417
       16.27387        7.65821       17.46919        0.417
        9.80172       16.99153        3.27242       -0.834
        9.25840       16.27078        3.59110        0.417
        9.78402       17.63630        3.97966        0.417
       26.03515       10.56808       18.87383       -0.834
       26.08942        9.67612       18.53076        0.417
       26.92481       10.91149       18.79130        0.417
       12.96202       27.89285       24.55245       -0.834
       13.64461       28.40365       24.11726        0.417
       13.07011       28.09118       25.48262        0.417
       13.85891        7.98850        8.49939       -0.834
       14.40773        7.67405        9.21783        0.417
       13.26487        7.26093        8.31501        0.417
       20.69952       10.09446       20.29794       -0.834
       21.58641       10.17735       19.94755        0.417
       20.58585       10.86882       20.84901        0.417
       14.83483       20.86761       27.39564       -0.834
       15.27619       20.42409       28.12003        0.417
       14.25542       21.50089       27.81928        0.417
       20.44136        9.76517        4.23947       -0.834
       21.18073        9.40261        4.72744        0.417
       20.82529       10.08056        3.42133        0.417
       24.26624       13.28032       14.58027       -0.834
       23.43600       12.98044       14.21012        0.417
       24.33133       12.82800       15.42133        0.417
       21.71476       10.95143       23.14236       -0.834
       22.63658       10.82658       22.91675        0.417
       21.32180       10.08533       23.03426        0.417
       25.78750       18.28209       21.10067       -0.834
       24.84623       18.20041       20.94716        0.417
       26.18516       17.66353       20.48791        0.417
       19.26880       19.19854       24.14742       -0.834
       19.03530       18.58483       23.45095        0.417
       18.87065       18.82960       24.93583        0.417
       20.58548       12.89800       21.59809       -0.834
       20.94084       13.03060       20.71925        0.417
       21.27753       12.43406       22.06931        0.417
       24.46001       10.44124       22.25135       -0.834
       25.32301       10.21492       22.59812        0.417
       24.53868       11.35937       21.99237        0.417
       20.08245       27.76813       23.10481       -0.834
       19.43194       27.58117       22.42797        0.417
       19.60191       28.26105       23.76990        0.417
        3.67117       15.97231       19.64049       -0.834
        3.94124       15.20372       20.14304        0.417
        4.48452       16.44940       19.47594        0.417
       14.63397       25.45527       25.10422       -0.834
       15.12175       26.21383       25.42499        0.417
       14.07328       25.80567       24.41207        0.417
       23.28158       15.92380       26.60317       -0.834
       22.42719       15.54334       26.80686        0.417
       23.53574       15.51411       25.77626        0.417
       17.63698        6.28373       16.24616       -0.834
       16.87256        6.39633       15.68117        0.417
       17.34028        5.68996       16.93583        0.417
       25.93438       25.53095        8.70332       -0.834
       25.98619       24.96525        7.93291        0.417
       25.38928       25.04468        9.32189        0.417
        5.40688       24.13762       16.39619       -0.834
        4.79751       24.09801       15.65908        0.417
        4.87095       23.93127       17.16197        0.417
       24.12992        7.58513       10.48798       -0.834
       23.46671        7.02036       10.88473        0.417