%Nproc=32
%Mem=120Gb
%chk=temp.chk
#p cam-b3lyp/6-31+G(d,p) nosymm charge Freq 

Calculation for S0 with freq for abs spect

0  1
 C         16.95853       15.28452       16.99593
 C         17.55860       17.66270       17.17620
 C         16.41711       18.02386       16.52446
 C         15.53272       16.98280       15.96520
 N         15.90224       15.66231       16.22943
 H         18.28824       18.42859       17.52475
 H         16.09770       19.01983       16.54152
 O         14.50566       17.14222       15.30839
 O         17.03194       14.12915       17.37054
 N         17.84867       16.31013       17.39986
 H         18.64332       15.95034       17.84059
 H         15.31785       14.97467       15.75740
 O         13.74693       13.87361       14.79767
 H         12.92540       13.96452       14.31491
 H         13.94485       12.93783       14.76047
 O         17.03444       14.32329       20.28096
 H         16.99091       13.38246       20.45174
 H         16.97272       14.39745       19.32864
 O         20.64185       17.84272       14.47509
 H         19.79339       17.98063       14.05399
 H         20.60872       18.38324       15.26438
 O         15.99820       16.73231       21.32098
 H         15.96460       15.83156       20.99886
 H         15.10853       17.06394       21.19959
 O         18.64807       15.92388       21.70422
 H         17.92293       16.51057       21.91916
 H         18.26110       15.26545       21.12719
 O         19.27525       16.08194       12.44315
 H         19.38788       16.01281       11.49512
 H         18.73781       16.86466       12.56453
 O         14.86711       18.29594       12.89189
 H         14.93358       19.22545       13.11059
 H         14.80761       17.85380       13.73877
 O         20.98835       19.37685       16.60768
 H         20.89813       19.14790       17.53270
 H         21.84109       19.80771       16.54915
 O         20.98249       15.46624       15.58661
 H         20.69481       16.33336       15.30102
 H         21.71967       15.25698       15.01302
 O         15.70953       20.57462       14.05222
 H         14.91354       21.10585       14.03111
 H         16.33807       21.06287       13.52045
 O         16.60441       12.60267       14.01748
 H         16.22422       12.89301       13.18839
 H         17.52579       12.85580       13.96068
 O         20.43482       16.48223       18.91588
 H         20.82503       17.28796       19.25466
 H         21.10134       15.81162       19.06505
 O         19.10075       14.05864       14.16257
 H         19.52446       14.34754       14.97080
 H         19.17199       14.80913       13.57273
 O         13.76646       15.38462       19.17599
 H         13.10222       15.65710       18.54292
 H         14.35493       14.81774       18.67741
 O         12.32805       15.78259       16.69358
 H         12.65368       14.95701       16.33495
 H         12.76576       16.45836       16.17591
 O         18.58381       11.80545       17.22000
 H         18.07164       12.61066       17.14553
 H         19.43326       12.09154       17.55587
 O         18.12201       18.66890       12.98735
 H         18.36996       19.59191       12.93439
 H         17.16564       18.67914       13.02588
 
       14.55223       19.35313       23.90168       -0.834
       14.20884       18.86029       24.64695        0.417
       15.06341       20.05971       24.29624        0.417
        6.15437       12.85690       13.94751       -0.834
        5.75105       12.16037       13.42943        0.417
        7.08210       12.82299       13.71426        0.417
       26.55273       16.23215       20.43630       -0.834
       26.60353       16.51036       21.35077        0.417
       25.65456       15.91862       20.33038        0.417
        5.54155       15.13685       17.72411       -0.834
        5.16022       15.07741       16.84816        0.417
        5.95651       14.28560       17.86347        0.417
       14.29733       23.64276       23.88293       -0.834
       14.90260       23.50846       23.15366        0.417
       14.85788       23.66864       24.65840        0.417
       21.75196       22.98928       23.36085       -0.834
       22.16755       23.52596       22.68595        0.417
       22.20383       23.22884       24.16996        0.417
       19.90931        6.29065       18.92526       -0.834
       19.41895        6.59092       18.16001        0.417
       19.74989        6.96032       19.59036        0.417
       10.39391       22.82467       28.49809       -0.834
       10.19749       22.90298       27.56454        0.417
       10.10138       21.94374       28.73181        0.417
       14.26528       11.18932        6.60712       -0.834
       14.80604       10.82231        5.90776        0.417
       13.89782       10.42570        7.05219        0.417
       21.03495       25.81998       20.63129       -0.834
       21.53985       25.65647       21.42789        0.417
       20.57636       24.99649       20.46456        0.417
       28.00728        8.47470       19.29201       -0.834
       28.70026        7.94356       18.89971        0.417
       27.19748        8.01620       19.06787        0.417
       21.25669        7.08163       26.19782       -0.834
       21.13316        7.58891       27.00009        0.417
       22.06392        7.42753       25.81707        0.417
       10.59628       17.68724        9.32159       -0.834
       10.09867       18.29869        8.77868        0.417
       11.48070       18.05257        9.34554        0.417
       26.59229       19.35988        9.23294       -0.834
       26.47746       19.88459        8.44066        0.417
       27.26532       19.82279        9.73191        0.417
       19.28276       24.21159       29.08462       -0.834
       20.22453       24.17038       29.25077        0.417
       19.20781       24.64473       28.23432        0.417
       25.35119       21.67490        7.19945       -0.834
       24.85127       21.39852        6.43139        0.417
       24.76264       21.51839        7.93793        0.417
       30.20046       18.24165       22.27817       -0.834
       30.77088       19.00967       22.24666        0.417
       29.90867       18.19662       23.18871        0.417
        8.98476       20.87998        9.77258       -0.834
        9.04870       20.03706        9.32356        0.417
        8.56962       21.46071        9.13489        0.417
       27.55083        7.97243       14.69591       -0.834
       26.67386        7.60142       14.79339        0.417
       28.03284        7.65265       15.45856        0.417
        5.37884       11.40973       22.17628       -0.834
        4.94283       12.21357       22.45908        0.417
        4.85186       10.70537       22.55364        0.417
       24.60272       27.44895       17.78926       -0.834
       24.97111       27.93323       18.52818        0.417
       23.73581       27.17592       18.08953        0.417
       24.24660       13.09470        5.25637       -0.834
       24.59797       12.48090        4.61137        0.417
       24.75388       12.92517        6.05020        0.417
       23.45486       18.13387        6.27317       -0.834
       24.09978       17.90085        5.60533        0.417
       23.31584       17.32467        6.76522        0.417
       13.25205        5.06205        9.94008       -0.834
       13.69243        4.48702        9.31428        0.417
       12.73537        4.47046       10.48717        0.417
        9.70815       25.95685       25.60206       -0.834
        9.09928       25.39568       26.08228        0.417
        9.87487       26.69109       26.19310        0.417
       24.34233        5.54275       11.73442       -0.834
       24.58916        6.25368       11.14291        0.417
       24.93329        4.82501       11.50673        0.417
       29.15437       18.90258       15.66804       -0.834
       28.55263       18.35869       15.15979        0.417
       28.68477       19.72717       15.79357        0.417
       21.59518        4.03136       17.55701       -0.834
       21.04825        4.76076       17.84869        0.417
       22.11502        4.39321       16.83934        0.417
       16.14982        4.26747       11.50368       -0.834
       15.56625        4.64399       12.16240        0.417
       16.97444        4.74058       11.61505        0.417
        9.62330       19.62586       14.50641       -0.834
        8.78229       19.60576       14.04976        0.417
       10.27624       19.63486       13.80653        0.417
       21.25907       25.75219        6.88564       -0.834
       21.36312       26.68041        6.67632        0.417
       21.72780       25.29475        6.18758        0.417
       12.91995       16.84571       28.10282       -0.834
       12.45572       17.16926       28.87486        0.417
       13.54385       17.53963       27.88962        0.417
       17.52918       22.23719       27.15623       -0.834
       18.34372       22.61742       26.82731        0.417
       17.17071       22.90585       27.73987        0.417
        7.41554       22.31532        7.78952       -0.834
        7.05052       23.16262        8.04460        0.417
        7.34700       22.30209        6.83486        0.417
       24.05680       20.56997        5.28169       -0.834
       23.22694       20.82205        4.87668        0.417
       23.87597       19.72499        5.69345        0.417
       25.03870        6.50167       14.29704       -0.834
       24.91862        5.84722       13.60892        0.417
       24.27894        7.07813       14.21521        0.417
        4.59341       23.10757       10.50339       -0.834
        5.07709       23.30576       11.30527        0.417
        3.67454       23.23388       10.73995        0.417
        9.64346       13.65590       16.30860       -0.834
       10.39875       13.50059       16.87574        0.417
        9.52693       14.60592       16.31890        0.417
       14.40444       19.44573       27.63341       -0.834
       15.12558       19.29220       28.24383        0.417
       14.33177       20.39882       27.58265        0.417
       24.33370       13.30760       17.24991       -0.834
       24.18600       12.63600       16.58405        0.417
       25.24924       13.19490       17.50550        0.417
       17.70905       10.35367        7.12962       -0.834
       18.19365       10.98546        6.59836        0.417
       17.00616       10.86564        7.52971        0.417
       22.32029       25.41466       13.64016       -0.834
       22.47381       25.47391       14.58311        0.417
       22.98609       24.80259       13.32661        0.417
       19.40205       23.76150       26.02535       -0.834
       18.73017       24.06368       25.41420        0.417
       19.89936       23.10921       25.53197        0.417
       14.41054       25.78795       20.75381       -0.834
       14.59941       26.36605       21.49297        0.417
       15.25888       25.41025       20.52166        0.417
       25.12007       10.33809        8.37123       -0.834
       25.56497       11.12617        8.05942        0.417
       25.82876        9.74795        8.62757        0.417
       19.24320       29.37177        9.70826       -0.834
       19.40642       28.47433        9.99843        0.417
       18.41164       29.60918       10.11862        0.417
       18.66795       21.78417        4.48459       -0.834
       17.81170       21.42641        4.71929        0.417
       18.96078       22.24224        5.27241        0.417
        9.83055       26.03530       19.08648       -0.834
       10.44632       26.76807       19.07631        0.417
        9.72689       25.82178       20.01378        0.417
       25.97424        4.76646       18.91008       -0.834
       25.15404        4.36264       19.19371        0.417
       25.73398        5.66528       18.68507        0.417
       19.03786        3.90270       19.69381       -0.834
       19.21105        4.64607       19.11620        0.417
       18.12077        3.68148       19.53183        0.417
       14.67958       11.27854       15.80641       -0.834
       15.44585       11.52019       15.28615        0.417
       14.96064       11.39157       16.71441        0.417
       10.86599       23.31197       12.58138       -0.834
       10.68182       24.23991       12.72709        0.417
       11.43403       23.29811       11.81107        0.417
       17.93029       10.13152       26.01965       -0.834
       18.47289        9.85532       25.28105        0.417
       18.17740       11.04379       26.17106        0.417
        5.49122        7.23406       17.83944       -0.834
        6.39955        7.07604       17.58213        0.417
        5.44220        8.17987       17.97830        0.417
        4.61467       20.09533       19.62533       -0.834
        4.93527       19.21532       19.42776        0.417
        4.14445       20.36237       18.83551        0.417
       14.22077       13.82004       25.93033       -0.834
       13.31019       14.06755       26.09098        0.417
       14.71135       14.23702       26.63863        0.417
        4.40278       14.79993        8.70160       -0.834
        4.76938       13.91593        8.72104        0.417
        4.04789       14.89317        7.81753        0.417
       14.67123       10.57120       23.73169       -0.834
       14.87200       11.46647       23.45889        0.417
       13.74211       10.59280       23.96085        0.417
       10.54251       13.88680        5.98724       -0.834
       10.80376       14.24946        6.83368        0.417
       10.94592       14.46788        5.34238        0.417
       12.71177        9.47574       15.95489       -0.834
       13.03278        9.11378       16.78082        0.417
       13.27058       10.23578       15.79266        0.417
       21.31376       22.22075        7.67544       -0.834
       22.10622       22.59741        8.05803        0.417
       21.43639       21.27457        7.75254        0.417
        1.72188       15.42327       18.55988       -0.834
        2.58614       15.51623       18.96068        0.417
        1.32280       16.28898       18.64651        0.417
       23.67494       15.70429       20.48504       -0.834
       22.95785       16.05736       21.01168        0.417
       23.47236       15.97704       19.59016        0.417
       31.27491       14.89648       18.99648       -0.834
       30.50828       15.31504       19.38805        0.417
       32.00225       15.48152       19.20850        0.417
       30.05376       15.24130       11.31685       -0.834
       30.90525       15.29827       11.75039        0.417
       30.26004       15.00188       10.41332        0.417
       16.16514       14.66655        4.67353       -0.834
       17.01192       14.22064        4.65439        0.417
       16.15097       15.18921        3.87175        0.417
       13.37502       12.71307       21.72434       -0.834
       13.20501       12.52827       20.80067        0.417
       13.04691       13.60267       21.85544        0.417
       19.17199        7.66494       21.11279       -0.834
       19.76088        8.41826       21.06863        0.417
       19.40902        7.22248       21.92781        0.417
       31.52708       15.05226       15.44968       -0.834
       31.37110       15.84089       15.96926        0.417
       31.76735       15.37959       14.58287        0.417
       15.63754       21.14314        2.10639       -0.834
       15.65149       21.65338        2.91614        0.417
       14.96704       21.56454        1.56873        0.417
       11.30092       15.66583        3.80703       -0.834
       12.18805       15.81466        3.47980        0.417
       10.75471       15.65025        3.02114        0.417
       14.56356       12.70629        2.87194       -0.834
       14.84993       13.27379        3.58760        0.417
       15.18033       12.88534        2.16218        0.417
       17.69563       10.76528       22.70183       -0.834
       18.60741       10.50001       22.82231        0.417
       17.29042       10.62731       23.55799        0.417
       19.58157        9.21602       10.86666       -0.834
       19.73474        9.14843       11.80910        0.417
       19.78000       10.12844       10.65609        0.417
       13.72839        9.87540       11.51116       -0.834
       13.84330        8.97389       11.21065        0.417
       14.44290       10.35933       11.09701        0.417
       11.60429       23.15863       15.35307       -0.834
       10.98352       23.54436       15.97121        0.417
       11.06960       22.91186       14.59846        0.417
       13.53506        5.06134       20.09057       -0.834
       13.30792        5.95976       19.85081        0.417
       14.01674        4.72568       19.33456        0.417
       10.70366        8.24761       24.07939       -0.834
       11.32445        8.47946       24.77012        0.417
        9.85030        8.50735       24.42658        0.417
        7.87761       22.96306       17.81763       -0.834
        8.61420       23.51424       17.55329        0.417
        7.20069       23.58210       18.09113        0.417
       14.49107        7.52133       10.36471       -0.834
       14.32324        6.57933       10.33829        0.417
       14.68364        7.75634        9.45701        0.417
       19.01872       13.79730       23.69814       -0.834
       18.58834       12.99704       23.39719        0.417
       18.72212       14.47310       23.08859        0.417
       10.02773        3.83457       22.46645       -0.834
        9.08144        3.96829       22.41269        0.417
       10.38485        4.70815       22.62629        0.417
       18.31544       17.40169        9.54636       -0.834
       19.25109       17.24260        9.67079        0.417
       18.20500       18.33561        9.72477        0.417
       21.92720       19.04123       19.19532       -0.834
       22.07187       19.55614       19.98915        0.417
       22.67608       19.24720       18.63587        0.417
        4.37349       17.97799       25.33917       -0.834
        5.05951       18.62484       25.50408        0.417
        4.02880       18.20838       24.47641        0.417
       16.89001       18.08656        5.44393       -0.834
       15.99003       17.80939        5.61551        0.417
       16.80858       18.76441        4.77301        0.417
       16.68944       23.51132       29.81703       -0.834
       16.43417       24.38866       29.53183        0.417
       17.64002       23.55913       29.91872        0.417
       16.85604       27.57445        8.56966       -0.834
       17.63742       27.33308        9.06706        0.417
       16.16789       27.65856        9.22968        0.417
       10.81826       16.93121       18.57108       -0.834
       11.17418       16.52364       17.78150        0.417
       10.67668       17.84566       18.32617        0.417
       12.82772        8.22222       13.59795       -0.834
       12.86869        8.99168       13.03007        0.417
       12.92752        8.57185       14.48341        0.417
       16.84148        7.50239       11.93021       -0.834
       16.22250        7.58375       11.20462        0.417
       17.02880        8.40493       12.18821        0.417
       17.58346       16.40997        3.16329       -0.834
       17.31376       16.32373        2.24893        0.417
       17.53154       17.34904        3.34126        0.417
        9.94613        3.55237       13.82059       -0.834
       10.14248        4.46849       13.62459        0.417
       10.73152        3.22748       14.26085        0.417
        8.11577       12.09195       22.03392       -0.834
        7.66535       12.65073       21.40057        0.417
        7.45207       11.46056       22.31156        0.417
        8.88705       18.32507       23.33184       -0.834
        9.51731       18.09187       22.65021        0.417
        8.22464       18.84617       22.87807        0.417
       18.86625        5.29328       12.06861       -0.834
       18.48057        6.16868       12.03468        0.417
       19.78202        5.44343       12.30324        0.417
        8.99251       10.24834       18.75977       -0.834
        9.62192       10.67849       19.33861        0.417
        8.22227       10.10229       19.30898        0.417
       19.91220        9.43014       24.11217       -0.834
       20.02547        8.51436       23.85773        0.417
       20.76723        9.69183       24.45375        0.417
       24.03195       23.81535       12.68295       -0.834
       24.26574       23.87146       11.75643        0.417
       24.80258       23.43242       13.10214        0.417
       21.62063        3.82048       11.53452       -0.834
       21.96180        3.07312       12.02574        0.417
       22.35772        4.42875       11.48037        0.417
       23.66477        8.85223       26.97937       -0.834
       24.54625        8.98312       26.62996        0.417
       23.68646        9.26096       27.84464        0.417
        8.61449       19.08909        7.66472       -0.834
        8.28732       18.20359        7.82304        0.417
        7.91818       19.51664        7.16614        0.417
       25.66389        7.15504       23.13048       -0.834
       26.03351        7.60287       22.36952        0.417
       25.98716        6.25678       23.06075        0.417
       25.34845       12.82633       23.38867       -0.834
       24.68493       12.91697       24.07260        0.417
       26.17286       12.72980       23.86539        0.417
       12.31393        3.10734       15.28698       -0.834
       13.18791        2.82130       15.55265        0.417
       11.81056        3.12834       16.10087        0.417
       21.23923       17.93498        9.78141       -0.834
       21.37894       18.66830        9.18229        0.417
       21.12840       17.17552        9.20942        0.417
       25.02356       17.15248        9.91818       -0.834
       24.72369       17.62114       10.69707        0.417
       25.61303       17.76672        9.48061        0.417
        9.90117       16.33875       12.01971       -0.834
        8.94763       16.37140       11.94272        0.417
       10.21601       16.96815       11.37089        0.417
        3.23301       12.67243       20.38332       -0.834
        3.19846       13.62589       20.46045        0.417
        4.15970       12.47622       20.24558        0.417
       19.37338       25.50423       13.45833       -0.834
       19.38670       26.45943       13.51877        0.417
       20.29317       25.25695       13.36303        0.417
       14.07087       29.41143       18.35478       -0.834
       14.76218       29.79826       18.89208        0.417
       13.70539       28.71427       18.89941        0.417
       26.98949       20.80382       19.02867       -0.834
       26.47189       20.04844       18.74990        0.417
       27.35885       21.15400       18.21800        0.417
       13.32717       24.71334        5.76609       -0.834
       14.01275       24.34081        5.21162        0.417
       12.51877       24.57815        5.27166        0.417
       22.62418        5.49980       15.54096       -0.834
       22.38555        5.92104       14.71522        0.417
       22.81236        6.22614       16.13531        0.417
       15.54244       13.29280       23.54237       -0.834
       15.12521       13.45014       24.38936        0.417
       14.86610       13.50393       22.89877        0.417
       28.63825       12.91966        7.91525       -0.834
       29.13894       12.22058        7.49475        0.417
       28.31732       12.52940        8.72822        0.417
        3.64464       16.59904       10.73942       -0.834
        3.74274       15.91570       10.07635        0.417
        4.38491       17.18704       10.58940        0.417
       11.48101        9.77252       26.53494       -0.834
       11.65794       10.12242       27.40816        0.417
       11.72004       10.48242       25.93900        0.417
       11.22703       17.30765        5.96505       -0.834
       11.28865       16.65838        5.26441        0.417
       11.84017       16.99950        6.63239        0.417
       16.20990       27.21162       25.24572       -0.834
       16.86936       27.89455       25.36799        0.417
       16.66562       26.39714       25.45828        0.417
       10.30481       28.66107       16.52504       -0.834
        9.97146       29.07904       15.73106        0.417
        9.53750       28.57391       17.09062        0.417
       15.98143       10.47892       10.23427       -0.834
       16.32643       11.10175        9.59452        0.417
       16.73089       10.26622       10.79043        0.417
        6.26594       23.47816       12.62098       -0.834
        6.64614       24.33005       12.83535        0.417
        7.01365       22.88103       12.59628        0.417
       20.83294       30.41573       15.78299       -0.834
       21.70577       30.02367       15.75701        0.417
       20.95598       31.24495       16.24504        0.417
       12.73991        6.33243       16.38439       -0.834
       12.40963        6.79581       15.61470        0.417
       12.16065        5.57593       16.47597        0.417
        4.66381       23.45899       19.79572       -0.834
        4.35620       24.09798       19.15283        0.417
        4.08346       22.70625       19.68254        0.417
       12.07263       19.44555       26.01594       -0.834
       12.26173       20.32093       25.67804        0.417
       12.83144       19.22823       26.55743        0.417
       22.67975       13.07817       14.12327       -0.834
       22.56320       12.37834       14.76583        0.417
       22.08897       12.84676       13.40657        0.417
       22.42801       20.34190       21.42441       -0.834
       23.30916       20.70833       21.49881        0.417
       21.85271       21.03092       21.75683        0.417
       10.03593        9.11405       16.06976       -0.834
       10.98183        9.26057       16.07536        0.417
        9.71115        9.61430       16.81842        0.417
       24.85448       21.15282       20.88852       -0.834
       25.07920       20.42635       21.46988        0.417
       25.47509       21.08069       20.16335        0.417
       19.20219       19.18215        6.34308       -0.834
       19.51403       19.36310        5.45638        0.417
       18.38963       18.69232        6.21643        0.417
       18.46767       13.68091        5.66250       -0.834
       19.08939       13.02054        5.96848        0.417
       18.29449       14.22250        6.43251        0.417
       29.53072       10.29528       15.22805       -0.834
       29.71865        9.52995       15.77136        0.417
       30.23084       10.91432       15.43509        0.417
       18.69433        4.64758       14.92883       -0.834
       19.05296        3.77588       14.76226        0.417
       18.95334        5.16356       14.16534        0.417
       27.90543       13.55332       13.90490       -0.834
       27.35005       12.85522       14.25196        0.417
       28.60249       13.09466       13.43590        0.417
        6.64152       24.71329       21.38849       -0.834
        6.11460       24.15417       20.81754        0.417
        6.00647       25.12207       21.97658        0.417
        6.28079       20.20199       25.12750       -0.834
        7.14864       20.11689       25.52226        0.417
        6.28266       21.07234       24.72911        0.417
       10.88591       11.19444        5.10217       -0.834
       11.44873       11.29299        4.33422        0.417
       10.79955       12.08130        5.45182        0.417
       19.80274       29.63406       22.87223       -0.834
       19.15735       30.34042       22.84476        0.417
       20.61158       30.05897       23.15763        0.417
       16.52489        8.05002       20.96651       -0.834
       16.54455        7.81716       20.03828        0.417
       17.44517        8.06675       21.22928        0.417
       18.58827       29.30107       16.77031       -0.834
       18.63837       28.39560       16.46398        0.417
       19.42090       29.69096       16.50394        0.417
       17.93667       15.70072        7.31456       -0.834
       17.83841       16.42300        7.93494        0.417
       17.75989       16.09302        6.45953        0.417
       15.08727        9.82628       26.42369       -0.834
       14.82214       10.17877       25.57416        0.417
       16.04254        9.78518       26.37891        0.417
       17.08414       19.84376       28.98078       -0.834
       17.30126       20.74013       28.72461        0.417
       17.42718       19.75861       29.87033        0.417
       19.61988       20.85915       30.02068       -0.834
       19.65167       20.74404       29.07096        0.417
       19.82678       21.78366       30.15744        0.417
       27.22835       14.76142       16.40561       -0.834
       27.67211       14.41708       15.63054        0.417
       26.97624       13.98357       16.90323        0.417
       17.09462       11.59222       20.12979       -0.834
       17.38374       11.32412       21.00201        0.417
       17.68985       11.14171       19.53064        0.417
       22.90192       10.89248       10.13614       -0.834
       23.61393       10.89749        9.49642        0.417
       23.33073       10.70453       10.97102        0.417
       23.44456       21.16423        9.25719       -0.834
       23.49246       20.82804       10.15213        0.417
       23.15413       20.41635        8.73512        0.417
       14.12024       16.83909        3.04338       -0.834
       14.88546       17.14436        3.53070        0.417