%Nproc=32
%Mem=120Gb
%chk=temp.chk
#p cam-b3lyp/6-31+G(d,p) nosymm charge Freq 

Calculation for S0 with freq for abs spect

0  1
 C         16.90618       15.22181       16.51627
 C         16.19061       17.19688       17.74139
 C         16.18083       18.03110       16.70731
 C         16.64481       17.50692       15.42556
 N         17.00638       16.14222       15.44943
 H         15.79945       17.53962       18.71779
 H         15.91332       19.04159       16.83955
 O         16.65342       18.17894       14.43236
 O         17.33451       14.10857       16.51312
 N         16.51174       15.86492       17.70027
 H         16.40750       15.26452       18.58975
 H         17.35070       15.80435       14.58092
 O         17.96678       15.51203       12.69481
 H         18.39978       14.65918       12.65737
 H         17.64530       15.65722       11.80498
 O         17.63985       11.71848       15.10171
 H         17.75674       12.44891       15.70919
 H         17.25709       12.11579       14.31949
 O         12.48179       17.02936       15.62489
 H         12.50364       16.62190       16.49076
 H         12.17178       16.33672       15.04147
 O         20.25973       17.53187       18.09353
 H         20.43793       18.23804       17.47240
 H         21.06758       17.44830       18.60012
 O         18.68160       16.02695       19.88292
 H         19.28448       16.28210       19.18459
 H         18.78162       16.70871       20.54732
 O         16.67194       14.02657       20.07308
 H         17.31617       14.73000       20.15301
 H         17.15364       13.23252       20.30475
 O         20.34304       17.05797       15.25726
 H         20.09689       17.12564       16.17979
 H         21.25182       16.75780       15.27276
 O         15.24280       21.46933       16.35385
 H         15.34918       22.00458       17.14025
 H         14.42327       20.99538       16.49519
 O         19.25498       12.70638       17.67294
 H         18.64035       13.35484       17.32948
 H         18.91442       12.48895       18.54068
 O         15.81426       12.98153       13.19631
 H         15.66086       13.77351       12.68108
 H         15.60271       12.26287       12.60048
 O         19.27301       18.81876       13.65117
 H         19.60016       18.08990       14.17839
 H         18.32180       18.71212       13.65825
 O         12.92873       15.93417       18.01120
 H         12.79724       16.73301       18.52189
 H         13.44735       15.36712       18.58191
 O         13.14271       18.41707       19.07942
 H         13.78912       19.04676       19.39859
 H         12.52496       18.94359       18.57208
 O         13.00754       18.37068       12.82338
 H         13.44158       18.36669       13.67651
 H         13.69455       18.12583       12.20346
 O         12.60794       19.63045       16.18699
 H         12.56279       18.73609       15.84888
 H         12.65005       20.18081       15.40496
 O         17.77032       21.18040       15.74279
 H         16.86212       21.32936       16.00587
 H         17.87099       20.22860       15.75606
 O         18.15921       18.97198       19.32236
 H         18.56439       19.69112       19.80703
 H         18.89693       18.45466       18.99927
 O         14.02523       13.88145       19.36415
 H         14.10727       12.94429       19.18743
 H         14.71928       14.06811       19.99636
 O         16.39022       20.66142       12.50147
 H         16.90639       21.42228       12.76773
 H         16.25190       20.16999       13.31116
 O         22.13100       14.63061       16.09224
 H         21.19663       14.83842       16.09193
 H         22.41883       14.81801       15.19879
 O         15.47261       19.99049       19.97570
 H         15.57583       20.81391       19.49866
 H         16.34295       19.59245       19.95851
 
       24.82317       23.41733        6.75776       -0.834
       25.65039       23.51893        6.28701        0.417
       24.48780       22.56725        6.47295        0.417
       22.55465       17.46710        3.88231       -0.834
       23.16745       17.21609        4.57347        0.417
       21.92668       16.74567        3.84472        0.417
       10.15283       15.55242        2.80628       -0.834
        9.77486       15.89511        3.61618        0.417
       10.82876       16.18743        2.56940        0.417
       14.09709       11.25674        6.43017       -0.834
       14.07414       10.31174        6.58075        0.417
       14.71349       11.58886        7.08283        0.417
       15.68724       10.18586       17.07086       -0.834
       15.89650        9.25610       16.98158        0.417
       15.80021       10.54294       16.18997        0.417
       26.53894        8.96692       25.86099       -0.834
       26.12716        9.44057       25.13827        0.417
       25.85766        8.91223       26.53115        0.417
       21.87385       26.92464        9.78661       -0.834
       21.31903       27.68179        9.59920        0.417
       22.76255       27.27919        9.81379        0.417
       10.37964       19.62744       12.61100       -0.834
       11.28762       19.32524       12.63276        0.417
       10.29089       20.17703       13.38965        0.417
       28.71767       24.41570       15.05684       -0.834
       28.31435       23.54801       15.03073        0.417
       29.47150       24.31257       15.63764        0.417
        6.08192       19.17179       18.78836       -0.834
        5.17036       19.37757       18.58110        0.417
        6.21737       19.53640       19.66297        0.417
       12.52424       14.64099       30.76620       -0.834
       11.84713       14.79836       31.42422        0.417
       12.20836       15.09319       29.98392        0.417
       23.62041       23.21436        9.96181       -0.834
       24.53175       23.25696        9.67218        0.417
       23.25696       22.45871        9.50017        0.417
       10.45980       19.64723       17.89723       -0.834
        9.67555       19.19971       17.57957        0.417
       11.02955       19.70643       17.13034        0.417
       11.09665       10.69210       17.81267       -0.834
       10.85964       10.62806       18.73785        0.417
       11.34389       11.60880       17.69117        0.417
       24.78572       12.08272       12.73266       -0.834
       25.41329       12.03879       13.45409        0.417
       23.93169       11.97153       13.15040        0.417
       19.46801       26.89323       16.21552       -0.834
       19.79377       26.91423       15.31570        0.417
       19.43143       25.96245       16.43584        0.417
       20.95968       19.30899        7.42406       -0.834
       20.08198       19.53403        7.73267        0.417
       20.81099       18.80858        6.62174        0.417
       20.74067       24.22708       27.18790       -0.834
       21.02297       25.05328       26.79555        0.417
       21.06811       23.55389       26.59138        0.417
        7.72897       10.79385       27.65264       -0.834
        7.62298        9.91540       27.28750        0.417
        7.67010       11.37701       26.89588        0.417
       25.09028        6.41611       11.52750       -0.834
       25.08674        6.13656       10.61204        0.417
       24.49397        7.16447       11.55221        0.417
       12.94379       10.37106       28.88484       -0.834
       12.88001       10.35513       29.83978        0.417
       13.20315        9.48095       28.64676        0.417
       11.72441       25.48269       19.29699       -0.834
       11.06869       26.17492       19.38106        0.417
       12.09974       25.61215       18.42602        0.417
        9.73975        6.09701       11.28343       -0.834
        9.49592        6.42239       12.14998        0.417
       10.60206        5.70111       11.40963        0.417
       20.29475       30.47272       14.71149       -0.834
       20.91473       29.92672       15.19496        0.417
       20.57516       30.40376       13.79889        0.417
        6.15753       14.80278       11.38887       -0.834
        6.80440       15.31663       10.90539        0.417
        5.68618       14.31419       10.71408        0.417
        5.90421        7.01822       11.04699       -0.834
        6.37082        6.37705       10.51089        0.417
        6.48177        7.17161       11.79473        0.417
       27.92714       12.98605       25.02698       -0.834
       28.82894       12.66577       25.04737        0.417
       27.69881       13.00121       24.09754        0.417
       26.56869       24.22127       18.13722       -0.834
       26.24516       25.01543       17.71194        0.417
       27.51756       24.34042       18.17802        0.417
       31.06925       19.25457       17.94386       -0.834
       30.92132       19.56571       17.05081        0.417
       30.43927       18.54292       18.05749        0.417
       25.24596       14.07345       10.31207       -0.834
       24.62811       14.72379        9.97808        0.417
       24.71230       13.49063       10.85221        0.417
       14.63000        4.06171       13.46523       -0.834
       15.10721        4.62975       12.86039        0.417
       13.70984        4.29019       13.33361        0.417
       24.45857       11.22763       25.56154       -0.834
       24.67563       11.25872       26.49328        0.417
       23.64726       11.73012       25.48723        0.417
       22.99618       11.44257       14.41532       -0.834
       23.56221       10.97930       15.03276        0.417
       22.16114       11.53064       14.87487        0.417
       15.06552       18.61587       31.18054       -0.834
       15.17932       17.70370       30.91364        0.417
       15.86950       18.82946       31.65407        0.417
       20.95601        7.34174        8.29161       -0.834
       21.11851        8.28163        8.37189        0.417
       20.18592        7.27873        7.72662        0.417
       12.31320       23.84783       28.03959       -0.834
       12.76450       24.42588       28.65474        0.417
       12.60681       22.96832       28.27723        0.417
       23.17304        3.43440       17.13930       -0.834
       23.81075        3.96266       16.65919        0.417
       22.55164        3.14322       16.47200        0.417
        7.52346       26.38898       24.62906       -0.834
        7.97516       25.74181       24.08742        0.417
        6.59326       26.21959       24.47980        0.417
       25.40651       15.42320       17.85110       -0.834
       24.93761       14.86061       17.23478        0.417
       25.13947       16.31179       17.61586        0.417
       10.70455        9.93077       26.44044       -0.834
       11.59128        9.65354       26.67086        0.417
       10.23028        9.11385       26.28576        0.417
        9.70172       20.16573       20.51990       -0.834
        8.95303       20.74353       20.37211        0.417
       10.04489       19.98881       19.64402        0.417
       29.69635       16.61663       18.96635       -0.834
       30.29365       17.04169       19.58180        0.417
       29.80712       15.68044       19.13218        0.417
       28.72433       15.79422       21.80606       -0.834
       28.50217       16.63266       21.40122        0.417
       29.10108       15.27651       21.09454        0.417
       22.23209        4.89746        7.90312       -0.834
       21.78972        5.73498        8.04135        0.417
       22.09444        4.70350        6.97594        0.417
        4.76683       13.84037       23.34444       -0.834
        4.50680       14.18879       22.49166        0.417
        5.06536       12.95002       23.15901        0.417
        9.24137       22.93417       11.65386       -0.834
       10.18600       22.93475       11.80847        0.417
        9.15273       22.80042       10.71020        0.417
        4.25309       22.87915       18.57670       -0.834
        4.79774       22.90480       17.78998        0.417
        4.32641       21.97767       18.89006        0.417
        9.81216       11.40138        7.46418       -0.834
        9.56759       11.67433        6.57992        0.417
        9.52549       10.48994        7.52191        0.417
       14.51207       11.14147       11.76903       -0.834
       14.96471       10.34637       12.05041        0.417
       13.63560       10.84475       11.52412        0.417
       24.66240       16.98262       27.00910       -0.834
       24.85521       16.98535       26.07153        0.417
       24.04724       17.70599       27.12971        0.417
        8.07981       16.76649        9.93775       -0.834
        7.57497       16.83965        9.12780        0.417
        8.56708       17.58860        9.99192        0.417
       25.08492        6.25367       14.44220       -0.834
       24.22450        6.45532       14.80997        0.417
       24.95098        6.27124       13.49458        0.417
       22.47517       16.52301       22.45766       -0.834
       22.78961       15.62319       22.37003        0.417
       23.20950       16.99689       22.84808        0.417
        5.58941       24.35709       21.19048       -0.834
        4.97277       25.03259       20.90820        0.417
        5.46458       23.64223       20.56628        0.417
       19.40917       24.52120       29.60124       -0.834
       19.95657       24.24812       28.86502        0.417
       18.51853       24.29142       29.33627        0.417
       20.71157       10.51326       20.95677       -0.834
       21.58948       10.89389       20.93172        0.417
       20.72581        9.92668       21.71305        0.417
       11.51894       27.27818        8.09363       -0.834
       11.85443       26.46199        7.72280        0.417
       11.28725       27.81025        7.33242        0.417
       28.15469       22.54816       23.21606       -0.834
       28.87571       21.98491       22.93482        0.417
       27.37225       22.00689       23.11093        0.417
       21.86897       16.51006       26.21574       -0.834
       20.98888       16.87997       26.14613        0.417
       22.39720       17.21596       26.58844        0.417
       17.33851        7.03941       10.08577       -0.834
       17.47128        7.66081        9.36990        0.417
       18.21743        6.87612       10.42792        0.417
       10.49978       21.14381       24.10342       -0.834
       10.76326       20.64341       24.87569        0.417
        9.74561       21.65602       24.39516        0.417
       10.69359        7.02699        7.31189       -0.834
       11.42162        7.39100        7.81558        0.417
       10.75367        6.08200        7.45189        0.417
       16.03501       15.67874       30.90110       -0.834
       15.75893       14.79202       31.13293        0.417
       16.50986       15.99130       31.67120        0.417
       15.35027       24.75823        6.30304       -0.834
       15.54093       24.15856        5.58174        0.417
       16.20195       24.92773        6.70572        0.417
        6.09641       16.87951       16.53470       -0.834
        5.31083       17.29643       16.18076        0.417
        5.79086       16.41353       17.31299        0.417
        9.65576       14.67455       26.18738       -0.834
       10.31259       14.90606       26.84404        0.417
        9.98550       13.86746       25.79228        0.417
       19.70368        5.93678       10.38442       -0.834
       20.42447        6.31952        9.88422        0.417
       20.00571        5.05557       10.60460        0.417
       22.58079       13.42235       18.50431       -0.834
       22.58524       13.75262       17.60590        0.417
       22.71824       14.19927       19.04629        0.417
        7.68327       12.78575       23.38082       -0.834
        8.63056       12.77766       23.51798        0.417
        7.54930       13.41065       22.66822        0.417
        2.98401       14.48160       11.60734       -0.834
        3.34457       14.08215       12.39896        0.417
        2.60127       13.75037       11.12251        0.417
       24.69528       26.46575       24.07989       -0.834
       25.28848       26.40673       24.82880        0.417
       25.27051       26.43769       23.31533        0.417
       17.26366       26.09497       21.68611       -0.834
       16.34762       25.82482       21.75030        0.417
       17.23853       27.04876       21.76293        0.417
       26.58640       15.95158       14.39975       -0.834
       27.04187       15.70377       13.59516        0.417
       27.23418       15.82080       15.09222        0.417
        7.73061       22.31809       23.97431       -0.834
        7.86365       22.86572       23.20060        0.417
        8.16721       22.79231       24.68194        0.417
       13.89009       12.16086       14.84629       -0.834
       14.59979       12.37720       14.24151        0.417
       14.33379       11.89504       15.65171        0.417
       13.53888       28.30211       12.71407       -0.834
       12.81679       28.76056       13.14378        0.417
       14.30868       28.84007       12.89912        0.417
       19.42601       12.31621        5.79861       -0.834
       18.70429       11.69043        5.73730        0.417
       19.05510       13.14163        5.48663        0.417
        9.65693       24.84334       13.93620       -0.834
        9.76306       24.70122       12.99558        0.417
        9.81974       23.98549       14.32840        0.417
       10.17370        7.57821       24.42281       -0.834
       10.94936        8.13220       24.33527        0.417
       10.07060        7.17193       23.56226        0.417
       13.96240       26.87922       24.94417       -0.834
       14.66347       26.23156       25.01684        0.417
       13.90727       27.06915       24.00763        0.417
       10.95287       12.07630       28.27192       -0.834
       11.79917       11.70540       28.52183        0.417
       10.54586       11.40115       27.72902        0.417
       23.26174       20.03527       12.89616       -0.834
       23.45209       20.87782       13.30860        0.417
       24.06418       19.81229       12.42435        0.417
        7.50690        7.45460       22.54671       -0.834
        8.28224        7.09809       22.98029        0.417
        6.87431        7.58281       23.25355        0.417
       16.01660        9.28608       13.47281       -0.834
       16.68572        9.95543       13.32968        0.417
       16.46906        8.59358       13.95443        0.417
       12.96563       23.11023       20.28397       -0.834
       12.63849       22.82260       21.13631        0.417
       12.30115       23.72123       19.96560        0.417
       10.88459       17.18268       24.76591       -0.834
       11.60295       17.30516       24.14527        0.417
       10.57367       16.29262       24.60051        0.417
       19.73073       17.64857       22.18998       -0.834
       19.11224       17.39302       22.87438        0.417
       20.51448       17.12889       22.36857        0.417
       14.71087        3.57214       17.94317       -0.834
       14.06997        3.17488       18.53281        0.417
       15.54490        3.17347       18.19153        0.417
       10.61013       19.88567        3.41319       -0.834
       10.96819       19.69677        4.28057        0.417
        9.68852       20.08890        3.57306        0.417
       18.15737        7.53511       22.20559       -0.834
       17.82501        8.12601       22.88131        0.417
       17.49359        6.84863       22.13945        0.417
        4.89501       11.36256        8.51828       -0.834
        5.63254       10.79418        8.29644        0.417
        4.63021       11.08130        9.39407        0.417
       16.41949       24.31741       12.17916       -0.834
       15.85877       23.84678       12.79588        0.417
       17.27834       23.90536       12.27311        0.417
       26.35317       22.83189        9.40653       -0.834
       27.27261       22.79863        9.67065        0.417
       26.38002       22.99822        8.46427        0.417
       25.18823       23.43154       15.34834       -0.834
       25.54110       24.21781       15.76487        0.417
       25.66510       22.70902       15.75674        0.417
        9.66202       22.56961       15.49001       -0.834
        9.44588       22.84122       16.38205        0.417
        8.81423       22.40514       15.07716        0.417
       12.84488       18.31005        8.86036       -0.834
       11.91144       18.10307        8.81465        0.417
       12.87445       19.22403        9.14321        0.417
       20.75740       17.68138        9.89219       -0.834
       20.93127       18.40028       10.49980        0.417
       20.55611       18.11252        9.06163        0.417
       19.06377       28.95083       24.87049       -0.834
       18.98183       29.07183       23.92451        0.417
       19.82935       29.47143       25.11360        0.417
       23.74678       26.28340       19.81254       -0.834
       23.74671       27.18278       20.14020        0.417
       22.84192       25.98953       19.91790        0.417
       17.47075       17.61252       24.31288       -0.834
       17.55213       16.69237       24.56376        0.417
       18.06635       18.07549       24.90208        0.417
       26.93286       12.34448       14.51077       -0.834
       26.40548       13.02186       14.93417        0.417
       27.35094       12.79104       13.77455        0.417
       16.61439       27.55514       15.93125       -0.834
       16.58070       27.63147       14.97769        0.417
       17.53618       27.38605       16.12605        0.417
        7.61375       12.41827       13.54867       -0.834
        7.74637       12.26668       14.48444        0.417
        8.27310       13.07186       13.31562        0.417
       16.91775       13.74047       27.50454       -0.834
       17.58933       13.21403       27.07087        0.417
       16.47285       13.12730       28.08962        0.417
       18.76804       23.90777        5.33475       -0.834
       19.07351       23.00392        5.41213        0.417
       18.54406       24.16285        6.22973        0.417
       22.87599       22.18526       17.93000       -0.834
       23.23190       22.74314       18.62161        0.417
       23.54958       22.18687       17.24993        0.417
       14.77316       20.33897       25.16275       -0.834
       13.87024       20.16563       25.42908        0.417
       14.77545       20.19768       24.21604        0.417
        4.68801       17.91719       24.44852       -0.834
        4.02243       18.09144       23.78303        0.417
        5.50436       18.23081       24.05936        0.417
       21.29018        8.79995       18.90977       -0.834
       21.32308        9.58449       18.36237        0.417
       21.27666        9.13362       19.80682        0.417
       22.42580       14.93265        6.86883       -0.834
       22.27795       14.05235        7.21444        0.417
       22.11323       14.89127        5.96504        0.417
       22.51842       21.28028        8.41503       -0.834
       23.22048       20.64655        8.56244        0.417
       21.81391       20.76953        8.01624        0.417
        5.70098       16.97535       13.21855       -0.834
        5.68981       16.17523       12.69328        0.417
        5.71182       16.66738       14.12478        0.417
       28.99574       16.03107       16.08165       -0.834
       29.88050       15.69288       15.94359        0.417
       28.96848       16.25971       17.01075        0.417
        7.44865       22.09934       13.79717       -0.834
        7.78644       22.39155       12.95056        0.417
        7.22284       21.17921       13.66082        0.417
       17.82347        8.31601        7.28783       -0.834
       18.25002        8.83374        7.97065        0.417
       17.71544        8.92492        6.55721        0.417
        7.99990        5.26681       15.77144       -0.834
        7.74349        5.98188       16.35381        0.417
        8.27796        4.56548       16.36055        0.417
       19.98612        4.78619       19.92878       -0.834
       20.55737        4.01961       19.97623        0.417
       19.68402        4.91638       20.82768        0.417
       17.89177       24.29448        8.08006       -0.834
       17.63272       24.72446        8.89507        0.417
       18.65474       23.76794        8.31849        0.417
       14.14481       21.68555       11.33989       -0.834
       14.51418       20.96720       11.85349        0.417
       14.83291       21.91174       10.71412        0.417
       11.62365       29.75879       21.63505       -0.834
       12.38700       29.24152       21.89189        0.417
       11.78823       30.62766       22.00140        0.417
       14.49495       11.12033       23.68268       -0.834
       15.16175       10.46422       23.88545        0.417
       14.18383       11.41843       24.53741        0.417
       25.46169       14.70276       25.56814       -0.834
       25.67363       15.22243       26.34354        0.417
       26.24053       14.16691       25.41812        0.417
        6.38208       20.35756       11.06910       -0.834
        6.45496       21.30791       10.98098        0.417
        6.49181       20.02484       10.17832        0.417
       10.05763       12.06019       24.67032       -0.834
       10.40012       11.38282       25.25350        0.417
       10.45448       11.86843       23.82063        0.417
       11.00648       29.50547       13.39058       -0.834
       10.82368       29.63040       14.32182        0.417
       10.35826       30.04978       12.94364        0.417
       18.83656       24.08081       17.28254       -0.834
       19.35663       23.72606       18.00359        0.417
       18.60711       23.31677       16.75355        0.417
       22.52907       25.16719        7.03075       -0.834
       23.22120       24.51666        6.91243        0.417
       22.35276       25.16162        7.97155        0.417
       12.13993       24.55223       22.57204       -0.834
       11.60944       25.10671       21.99988        0.417
       11.87337       24.79726       23.45812        0.417
       26.25063       12.60040        7.76144       -0.834
       25.79878       13.04918        8.47605        0.417
       26.45257       11.73305        8.11238        0.417
       26.01558       10.02179        8.82709       -0.834
       26.88352       10.06483        9.22842        0.417
       25.97511        9.14916        8.43580        0.417
       24.99432       24.87229       11.60079       -0.834
       24.52604       24.07231       11.36210        0.417
       24.40821       25.32064       12.21044        0.417
       15.52659        7.52623       18.64049       -0.834
       14.73747        8.04906       18.78253        0.417
       16.18425        7.92459       19.21060        0.417
       27.51864       18.39839        9.81120       -0.834
       27.13957       17.96296        9.04770        0.417
       27.94929       19.17553        9.45505        0.417
       20.90096       15.96936       12.11665       -0.834
       20.01440       15.93909       12.47626        0.417
       20.81502       16.47519       11.30858        0.417
        9.00288       17.47092       13.62603       -0.834
        8.97927       17.77373       14.53377        0.417
        9.15300       18.26442       13.11217        0.417
        9.24011       24.09504       25.45507       -0.834
        9.16093       24.82709       26.06668        0.417
       10.13542       24.15631       25.12205        0.417
       25.84697        7.65109       16.93540       -0.834
       25.14893        7.13714       17.34139        0.417
       25.70527        7.54723       15.99446        0.417
       14.97526       17.50589        4.50649       -0.834
       14.41808       16.74278        4.35338        0.417
       15.21384       17.44710        5.43161        0.417
       11.56148       19.91050        5.92932       -0.834
       11.23054       19.23071        6.51634        0.417
       11.14525       20.71601        6.23614        0.417
       18.21620       11.65041       19.89999       -0.834
       19.07887       11.30987       20.13677        0.417
       17.70080       10.87211       19.68826        0.417
        3.59578       17.46004       15.67284       -0.834
        3.07359       17.55088       14.87578        0.417
        3.56445       16.52495       15.87499        0.417
       15.30004       12.01667       28.90656       -0.834
       14.44953       11.58582       28.82147        0.417
       15.28221       12.41300       29.77767        0.417
       25.65116       20.34999       10.81698       -0.834
       25.92629       21.19308       11.17716        0.417
       26.39215       19.76626       10.97952        0.417
       16.23184       27.03341       13.02068       -0.834
       16.27832       26.10920       12.77594        0.417
       15.30296       27.25373       12.95087        0.417
       11.56600       18.88148       26.76329       -0.834
       11.26588       18.22976       26.12971        0.417
       12.48106       18.65332       26.92709        0.417
        6.17897       22.93113       10.91239       -0.834
        6.71816       23.68434       11.15361        0.417
        5.53850       22.85802       11.61998        0.417
        4.52168       10.09009       17.25597       -0.834
        4.97985        9.32877       16.90001        0.417
        3.59350        9.88936       17.13595        0.417
       10.44232       12.91844       12.57396       -0.834