%Nproc=32
%Mem=120Gb
%chk=temp.chk
#p cam-b3lyp/6-31+G(d,p) nosymm charge Freq 

Calculation for S0 with freq for abs spect

0  1
 C         15.55314       17.58789       16.18114
 C         17.04343       16.51716       17.84407
 C         17.41120       15.53150       17.04334
 C         16.84005       15.43300       15.68626
 N         16.03352       16.56046       15.34898
 H         17.50362       16.66667       18.78005
 H         18.10700       14.83658       17.42152
 O         17.09566       14.53983       14.88255
 O         15.07043       18.63760       15.79016
 N         16.17327       17.49873       17.49012
 H         15.96193       18.24806       18.17819
 H         15.62438       16.61014       14.39738
 O         16.70463       17.82379       12.11642
 H         15.84255       18.18152       11.90409
 H         17.03783       18.39524       12.80826
 O         13.61248       15.69970       14.04881
 H         13.71646       15.27964       13.19502
 H         13.46823       14.97474       14.65697
 O         16.18267       12.76001       18.99471
 H         16.68965       12.57943       18.20313
 H         15.27013       12.66252       18.72269
 O         18.94285       12.44206       15.21638
 H         18.33436       13.17103       15.33707
 H         18.81863       12.17398       14.30592
 O         19.41948       18.01242       15.08031
 H         19.98648       17.54581       15.69433
 H         19.44300       17.48372       14.28271
 O         17.35373       19.61209       14.44652
 H         16.53662       19.55677       14.94200
 H         17.91949       18.94888       14.84185
 O         12.41826       19.04073       15.90403
 H         13.36968       18.97811       15.81976
 H         12.17138       18.27012       16.41534
 O         12.79209       13.81519       15.70825
 H         12.81545       13.57941       16.63567
 H         12.37825       13.06558       15.28041
 O         13.66302       14.06061       20.99859
 H         13.01090       14.70151       21.28180
 H         14.37601       14.58729       20.63736
 O         20.83183       15.40760       14.94437
 H         20.80870       14.45508       15.03600
 H         20.90112       15.55637       14.00135
 O         11.49754       16.52159       17.29755
 H         10.85173       16.43840       16.59596
 H         11.80641       15.62794       17.44663
 O         15.17917       16.57204       20.86681
 H         15.59438       15.83346       21.31215
 H         15.81744       17.28222       20.93371
 O         18.17516       13.81102       20.87626
 H         17.51457       13.39218       20.32452
 H         18.97001       13.29802       20.73038
 O         21.32765       17.11794       17.00076
 H         21.30556       16.38242       16.38859
 H         22.12687       17.59398       16.77522
 O         15.20575       11.94511       14.43579
 H         14.97571       12.71904       14.94993
 H         14.73034       12.05412       13.61218
 O         17.53154       17.97972       21.24997
 H         17.57931       18.78471       20.73427
 H         18.08584       18.14944       22.01167
 O         15.50039       19.45620       19.56943
 H         14.77475       19.53608       20.18854
 H         15.95267       20.29830       19.61985
 O         20.57593       19.69215       18.42792
 H         20.48689       19.14985       17.64421
 H         21.51537       19.69634       18.61140
 O         17.33101       14.30668       12.22067
 H         16.59971       14.65581       11.71123
 H         17.11130       14.51387       13.12898
 
       20.76817       24.51406       12.12327       -0.834
       21.66321       24.44672       12.45584        0.417
       20.35797       25.18263       12.67188        0.417
       25.00059       11.61914        6.12577       -0.834
       25.46311       12.18795        6.74121        0.417
       25.00288       12.10547        5.30132        0.417
       10.79485       10.60035       18.68927       -0.834
       11.02360       11.20950       17.98725        0.417
       11.39288        9.86239       18.57105        0.417
       25.35779       18.79653       25.24912       -0.834
       24.52664       18.33640       25.36619        0.417
       25.75493       18.80001       26.12004        0.417
       10.40942       28.59073       11.62791       -0.834
       10.00427       29.44901       11.75211        0.417
       10.67292       28.58063       10.70775        0.417
        7.64233       21.56498       17.01428       -0.834
        8.06187       20.84863       16.53777        0.417
        7.88282       21.41800       17.92905        0.417
       21.83776        3.99171       22.20691       -0.834
       21.15972        4.19451       21.56241        0.417
       22.41587        3.37308       21.76046        0.417
       19.19517       23.47887       26.67630       -0.834
       19.87780       23.55390       26.00950        0.417
       18.61704       24.22404       26.51280        0.417
       12.80337       30.79526       11.84326       -0.834
       12.93172       29.84707       11.81704        0.417
       12.07719       30.95589       11.24069        0.417
       10.03555        5.49033        8.89900       -0.834
       10.82379        4.96444        9.03438        0.417
        9.31459        4.90829        9.13916        0.417
       23.05598        9.92907        5.36584       -0.834
       23.70048       10.58412        5.63371        0.417
       22.71044       10.25775        4.53590        0.417
       15.72520        9.47731       10.76587       -0.834
       15.48853        9.22424       11.65815        0.417
       16.31346        8.78358       10.46769        0.417
       18.65231       20.64904       30.47175       -0.834
       17.76206       20.99205       30.39403        0.417
       18.77460       20.50948       31.41079        0.417
       27.73100       16.56258       15.92044       -0.834
       27.26554       17.29823       15.52243        0.417
       27.99187       16.88260       16.78402        0.417
       10.45196       30.19218       17.20963       -0.834
       10.82994       29.46050       16.72177        0.417
       10.90806       30.96454       16.87552        0.417
       17.21596       20.58513       27.83047       -0.834
       16.98466       21.51191       27.89227        0.417
       16.54722       20.20850       27.25849        0.417
       19.96389       22.43281        4.08749       -0.834
       19.73515       23.21666        3.58800        0.417
       20.85545       22.59604        4.39524        0.417
       20.06943       15.49700       22.97522       -0.834
       19.56568       15.05884       22.28930        0.417
       20.30451       16.34403       22.59641        0.417
       20.21645       26.87114       20.31227       -0.834
       20.28497       27.67547       19.79789        0.417
       19.56307       26.34580       19.85037        0.417
       19.26445        5.24465        9.60294       -0.834
       19.26804        5.25217       10.56011        0.417
       19.63328        6.09240        9.35491        0.417
       20.40952       11.65934       10.62589       -0.834
       21.01345       10.96624       10.89256        0.417
       19.92260       11.28418        9.89214        0.417
       24.56099       15.12002       15.15258       -0.834
       25.39315       14.65386       15.07245        0.417
       24.64275       15.61906       15.96529        0.417
        7.39329        8.38461       17.94660       -0.834
        8.02682        8.68912       17.29687        0.417
        7.78276        8.61796       18.78927        0.417
       16.18654        9.73260        5.83761       -0.834
       15.98468        8.79778        5.87762        0.417
       16.04278       10.04756        6.73000        0.417
       11.01582       11.34614       24.62178       -0.834
       10.74002       10.51423       25.00661        0.417
       10.73093       12.00813       25.25171        0.417
        6.15542       16.84538       22.31819       -0.834
        6.95651       16.46186       21.96126        0.417
        6.39679       17.74563       22.53619        0.417
       14.92577       19.47830       26.29417       -0.834
       14.28545       20.14363       26.54629        0.417
       15.27600       19.78679       25.45845        0.417
       20.86819       24.02864       24.29096       -0.834
       21.66418       23.51752       24.14475        0.417
       21.11058       24.92358       24.05316        0.417
       18.75491       12.40506       26.33979       -0.834
       18.61130       13.29459       26.01678        0.417
       19.28767       11.98715       25.66321        0.417
       16.32624        6.92253       25.07244       -0.834
       16.45823        7.79461       24.70059        0.417
       16.80352        6.33645       24.48512        0.417
       12.42017       13.76071       28.37236       -0.834
       11.49745       13.61133       28.16619        0.417
       12.67967       12.99284       28.88154        0.417
        5.70436       15.62404       25.64282       -0.834
        5.44698       16.53496       25.50064        0.417
        4.88389       15.17003       25.83500        0.417
       27.00116       15.03623       11.92775       -0.834
       26.97027       14.39983       12.64209        0.417
       26.33119       14.73878       11.31221        0.417
       21.94981       14.16540       10.54488       -0.834
       21.45276       14.44719        9.77692        0.417
       21.55130       13.33217       10.79619        0.417
       14.42669       14.45949       11.73914       -0.834
       14.62609       13.53010       11.62644        0.417
       13.64104       14.60211       11.21127        0.417
       16.54330       23.76181        4.07587       -0.834
       17.43552       23.56029        3.79381        0.417
       16.04100       23.81579        3.26285        0.417
       10.63422       24.40206       12.31646       -0.834
       10.99847       24.63850       11.46345        0.417
       10.35454       25.23461       12.69709        0.417
       10.33929       12.28130        7.05257       -0.834
       10.29678       13.11215        7.52598        0.417
        9.83652       12.43488        6.25266        0.417
       21.55909       22.62332        8.17457       -0.834
       22.49397       22.41805        8.16402        0.417
       21.49712       23.43421        8.67940        0.417
       28.21334       10.96027       18.30483       -0.834
       28.18593       10.03301       18.54081        0.417
       28.82238       11.00238       17.56759        0.417
       20.64530       12.31769       24.25875       -0.834
       21.37217       12.25147       23.63949        0.417
       20.77005       13.16538       24.68548        0.417
       29.27356       16.60268       13.20814       -0.834
       28.92579       16.48507       14.09214        0.417
       28.56518       16.31643       12.63152        0.417
       15.21096        7.42215       18.24198       -0.834
       15.80005        8.05766       17.83541        0.417
       15.56668        6.56991       17.99022        0.417
       18.35433        2.18265       11.35393       -0.834
       18.50850        2.50357       10.46540        0.417
       18.54763        2.93236       11.91678        0.417
       24.30762        7.79753        9.41385       -0.834
       24.71897        7.92728       10.26836        0.417
       24.74818        8.42247        8.83804        0.417
       11.72905       19.97584        3.31150       -0.834
       12.09551       20.83646        3.51465        0.417
       10.85862       19.98561        3.70955        0.417
       10.08051       13.14730       26.87109       -0.834
        9.36865       12.83857       27.43160        0.417
        9.65664       13.73753       26.24804        0.417
       13.50479        7.48757       25.08360       -0.834
       14.25302        6.90171       25.19824        0.417
       13.81798        8.16161       24.48045        0.417
       11.33010       17.73262        7.75994       -0.834
       11.20239       16.96725        8.32042        0.417
       12.08479       17.50821        7.21559        0.417
        7.29424       25.11808       20.88764       -0.834
        7.38844       25.66683       20.10903        0.417
        8.10936       24.61795       20.92880        0.417
       25.26073       10.25244       15.48702       -0.834
       24.30953       10.31384       15.39939        0.417
       25.40414        9.45084       15.99011        0.417
       13.98998        6.60096        8.30859       -0.834
       13.17936        6.86018        7.87049        0.417
       13.80207        5.73371        8.66748        0.417
       19.99772       15.32214        8.99128       -0.834
       19.36137       15.94328        9.34552        0.417
       19.46688       14.66603        8.53966        0.417
       15.67599       13.98816       25.15701       -0.834
       14.81709       14.18405       25.53139        0.417
       16.27180       13.99619       25.90612        0.417
       17.47090       25.50044       26.87560       -0.834
       16.84331       25.70186       26.18149        0.417
       17.31150       26.16679       27.54403        0.417
        7.06115       25.68739       23.60538       -0.834
        7.13560       25.40479       22.69388        0.417
        7.91480       26.06977       23.80857        0.417
        4.62054       25.26762       18.55833       -0.834
        4.64160       24.37931       18.91428        0.417
        5.46009       25.36617       18.10924        0.417
        2.45419        9.33593       18.47120       -0.834
        3.24347        9.80942       18.20838        0.417
        2.54731        9.22043       19.41683        0.417
       26.00379       22.82251       22.53209       -0.834
       26.40582       22.00231       22.81824        0.417
       25.87459       23.32079       23.33909        0.417
       23.71278       13.42652       26.34539       -0.834
       24.45674       13.90522       25.97986        0.417
       22.94342       13.86324       25.97989        0.417
       27.14167       20.74563        7.17657       -0.834
       27.37790       21.21083        6.37406        0.417
       26.18551       20.78202        7.20245        0.417
       15.92847       19.81952        2.92898       -0.834
       15.69160       19.98733        3.84110        0.417
       16.45251       19.01913        2.96048        0.417
       22.51635       23.41272       14.30223       -0.834
       22.66888       23.09678       15.19282        0.417
       21.60375       23.18799       14.12087        0.417
        9.24577       19.16383       12.52661       -0.834
        9.24771       19.82432       13.21942        0.417
       10.00990       18.61830       12.71298        0.417
       21.96476       10.41846       27.91092       -0.834
       21.42546       11.18264       28.11445        0.417
       22.84125       10.65577       28.21370        0.417
       11.17711        9.43130        6.61357       -0.834
       10.26763        9.16693        6.75196        0.417
       11.29595       10.19028        7.18460        0.417
       19.83200       16.84559       12.46109       -0.834
       20.52020       17.32353       11.99828        0.417
       19.52519       16.19511       11.82945        0.417
        8.29563       11.38407       13.89615       -0.834
        7.45728       10.94780       13.74425        0.417
        8.22154       11.74544       14.77942        0.417
        7.46211       12.47667        5.95556       -0.834
        6.70598       11.91075        6.11124        0.417
        7.17804       13.07113        5.26119        0.417
        2.42732       17.54347       13.17164       -0.834
        2.77632       16.66936       13.34591        0.417
        1.93849       17.44812       12.35422        0.417
       15.75998        1.69505       19.77282       -0.834
       15.70835        0.76659       19.54582        0.417
       16.42354        2.05017       19.18137        0.417
       11.39470       17.62000       13.33029       -0.834
       11.70895       18.36325       13.84513        0.417
       12.05659       16.94090       13.46050        0.417
       11.39149       20.25913       25.01515       -0.834
       10.61238       19.71747       24.88944        0.417
       12.11939       19.69853       24.74660        0.417
       23.25205       21.09311        5.94699       -0.834
       22.97362       21.99481        5.78686        0.417
       23.77364       21.14167        6.74812        0.417
       25.58259       15.66065       20.54689       -0.834
       26.25323       15.03739       20.82621        0.417
       24.97576       15.70735       21.28569        0.417
       12.59711       18.72579       30.19555       -0.834
       13.41219       18.94221       29.74274        0.417
       12.59577       17.76979       30.24353        0.417
       27.22400       18.91193       14.24688       -0.834
       28.09115       19.26013       14.45436        0.417
       27.22378       18.82052       13.29405        0.417
       24.11370        4.32245       15.70048       -0.834
       24.35275        4.61418       16.58025        0.417
       23.25195        4.70914       15.54530        0.417
       23.02410        4.47450       13.14337       -0.834
       23.72759        5.10849       13.28263        0.417
       23.29799        3.70025       13.63506        0.417
        7.77984       23.49500       15.05448       -0.834
        8.64024       23.71013       15.41455        0.417
        7.45959       22.78239       15.60753        0.417
       16.01048        6.64339       21.66273       -0.834
       16.70357        7.17017       22.06068        0.417
       16.10867        6.78896       20.72178        0.417
        3.09011       24.54319       15.22834       -0.834
        3.91883       24.45725       14.75709        0.417
        2.54568       23.83334       14.88784        0.417
       25.77266       18.84383       28.11728       -0.834
       25.84020       18.57382       29.03312        0.417
       24.93304       18.48990       27.82403        0.417
       16.41951       12.62488        2.79526       -0.834
       15.97118       13.45161        2.97345        0.417
       16.33011       12.50225        1.85016        0.417
        5.50498       24.57624       13.95775       -0.834
        6.34130       24.22232       14.26032        0.417
        5.44562       24.30253       13.04245        0.417
       12.37910        4.73675       25.26923       -0.834
       12.40806        5.65793       25.52771        0.417
       13.26707        4.41550       25.42590        0.417
       10.36141       26.15825       18.91768       -0.834
       10.69644       25.54944       19.57595        0.417
       10.57405       25.74683       18.07998        0.417
        6.23282       21.74508       22.67416       -0.834
        6.11750       21.55067       23.60429        0.417
        7.13681       21.49249       22.48647        0.417
       23.18381       17.77062       27.29176       -0.834
       22.23562       17.90131       27.30211        0.417
       23.29555       16.82068       27.32863        0.417
       19.00636       20.78281       12.26779       -0.834
       19.10339       20.78771       13.22005        0.417
       18.09636       21.03911       12.11796        0.417
       19.71915        7.99835        8.52014       -0.834
       20.58213        7.64185        8.73084        0.417
       19.70096        8.03342        7.56376        0.417
       21.45454       10.53592       18.45612       -0.834
       22.28380       11.01369       18.47298        0.417
       21.32322       10.25113       19.36049        0.417
       20.00814       12.24690       28.69986       -0.834
       20.27156       13.16657       28.73232        0.417
       19.47348       12.17818       27.90888        0.417
       31.64695       15.28847       13.63539       -0.834
       30.87793       15.64992       13.19471        0.417
       31.40570       15.26875       14.56148        0.417
       22.11921       22.10067       16.67675       -0.834
       21.31416       22.33598       17.13802        0.417
       22.53537       21.44691       17.23857        0.417
        4.98099       22.25239       16.45957       -0.834
        5.89955       22.09530       16.67820        0.417
        4.65609       22.80464       17.17070        0.417
       12.40789       24.37903       20.40563       -0.834
       12.61464       23.69922       19.76427        0.417
       13.26008       24.66947       20.73066        0.417
       19.45282       15.67828        5.09339       -0.834
       18.67076       15.29297        5.48856        0.417
       19.63585       16.45104        5.62779        0.417
       14.50632        5.49656       13.34452       -0.834
       13.89632        6.20828       13.15067        0.417
       14.23434        5.17479       14.20402        0.417
        9.82266       15.19953        5.51072       -0.834
        9.37528       14.88535        6.29645        0.417
       10.56959       15.69758        5.84279        0.417
       23.52850       21.73225       10.81237       -0.834
       24.14573       21.12243       11.21656        0.417
       22.67057       21.32954       10.94657        0.417
       12.87393       10.86831       21.40337       -0.834
       12.00150       10.52473       21.21092        0.417
       12.72081       11.57336       22.03241        0.417
       24.74685       16.57274        6.87452       -0.834
       23.83731       16.64055        7.16498        0.417
       24.69659       16.60334        5.91913        0.417
       19.64706       26.10381       13.85990       -0.834
       19.23834       25.53620       14.51336        0.417
       19.19715       26.94319       13.95607        0.417
       16.27755       22.20575       20.44084       -0.834
       16.50601       21.91295       21.32305        0.417
       17.11939       22.38400       20.02160        0.417
       28.20453       21.49856       16.44517       -0.834
       28.86982       20.83196       16.27407        0.417
       27.54755       21.05069       16.97810        0.417
       23.94010        4.97971       20.44970       -0.834
       23.77004        4.07512       20.18700        0.417
       24.44636        4.90360       21.25849        0.417
       15.20691       16.97455       30.94214       -0.834
       14.43920       16.48369       30.64904        0.417
       15.09606       17.84469       30.55901        0.417
       12.40832       27.91609       19.36742       -0.834
       11.50653       27.60097       19.30659        0.417
       12.72986       27.89891       18.46600        0.417
       23.01063       20.53638       27.07660       -0.834
       22.07290       20.58999       27.26104        0.417
       23.23739       19.62266       27.24960        0.417
       24.60813       16.30361       17.84023       -0.834
       25.03121       17.15628       17.73929        0.417
       24.86360       16.01102       18.71508        0.417
        9.93438       23.80121       21.01142       -0.834
        9.94346       23.47167       21.91006        0.417
       10.85022       24.00408       20.82094        0.417
       28.17626       23.49540       11.25434       -0.834
       28.48111       22.58868       11.28850        0.417
       27.36415       23.49480       11.76099        0.417
       13.98571        5.68944       16.22696       -0.834
       13.22460        5.17911       16.50357        0.417
       14.70782        5.34878       16.75491        0.417
        9.99926       14.09895        3.10670       -0.834
       10.03459       14.27973        4.04601        0.417
        9.15204       14.44586        2.82724        0.417
        6.09280       20.28428        8.97801       -0.834
        6.55911       19.45282        9.06446        0.417
        5.30887       20.17690        9.51667        0.417
       13.75914       28.50017       12.73198       -0.834
       14.15881       28.28882       11.88828        0.417
       14.02898       27.78709       13.31071        0.417
        5.37838       22.62923       20.05522       -0.834
        5.60577       22.44552       20.96669        0.417
        6.22125       22.73875       19.61499        0.417
       10.51731       12.05892       29.61268       -0.834
        9.61449       11.74967       29.53834        0.417
       11.03769       11.38910       29.16911        0.417
       12.04080       11.48436       14.39066       -0.834
       11.55883       11.71306       13.59590        0.417
       12.01468       10.52797       14.42031        0.417
       17.04554        5.73932       12.32151       -0.834
       16.24660        5.83079       12.84069        0.417
       17.60006        6.46650       12.60427        0.417
       12.00031       13.52986       10.34135       -0.834
       12.45695       13.14299        9.59432        0.417
       11.56292       12.79086       10.76420        0.417
        5.94061        9.91407       15.52085       -0.834
        5.94163        9.05491       15.94283        0.417
        5.69668       10.52337       16.21761        0.417
       21.82934        8.12136       17.44788       -0.834
       21.79108        9.03008       17.74619        0.417
       22.16781        7.63588       18.20019        0.417
       15.34834       29.89146       22.72749       -0.834
       15.45432       30.83499       22.84894        0.417
       15.09780       29.79440       21.80877        0.417
       11.83949        6.37335        6.71521       -0.834
       10.94536        6.71437        6.69327        0.417
       12.17757        6.52943        5.83341        0.417
       21.89342        7.01028       11.69486       -0.834
       22.53781        7.71731       11.66178        0.417
       22.11068        6.45242       10.94798        0.417
       15.63048        4.54550       18.17867       -0.834
       16.51320        4.34817       18.49188        0.417
       15.05132        4.18191       18.84845        0.417
       17.80256       25.31345       18.80923       -0.834
       17.91479       24.37182       18.93949        0.417
       16.98130       25.52118       19.25488        0.417
       22.53311        7.97453       14.75445       -0.834
       21.95523        8.60720       14.32781        0.417
       22.45659        8.17118       15.68811        0.417
       24.10562       16.88470        4.01302       -0.834
       23.89372       17.77537        3.73369        0.417
       24.88785       16.65551        3.51120        0.417
       16.53628       15.24326       22.78564       -0.834
       17.35735       14.90765       22.42587        0.417
       16.44129       14.79465       23.62585        0.417
        2.43663       12.87960       15.42994       -0.834
        2.65999       13.80492       15.53062        0.417
        2.66533       12.48459       16.27130        0.417
       11.21025       28.05145       15.91175       -0.834
       10.54097       27.45043       15.58458        0.417
       12.01611       27.53492       15.91418        0.417
        9.56077       20.52077        9.89768       -0.834
        9.30015       19.97470       10.63938        0.417
        9.07448       20.16396        9.15441        0.417
       14.81956       14.93442        3.85664       -0.834
       14.12015       14.34325        4.13517        0.417
       14.76936       14.93201        2.90076        0.417
        9.72707       26.75056       13.41951       -0.834
        9.94748       27.40818       12.75983        0.417
        9.11349       27.19427       14.00506        0.417
       13.60679       28.82741       24.59151       -0.834
       14.12270       29.07530       25.35872        0.417
       14.15226       29.07558       23.84513        0.417
       22.73852       25.82958        7.51276       -0.834
       23.16354       26.67340        7.66622        0.417
       22.89439       25.33277        8.31595        0.417
       13.26937       21.95980       23.81550       -0.834
       13.19975       21.83640       22.86884        0.417
       12.50468       21.50864       24.17320        0.417
       20.02869        1.96948       19.64956       -0.834
       20.16886        1.27141       20.28932        0.417
       20.24109        2.77432       20.12216        0.417
       14.57710       12.23844       22.99262       -0.834
       14.59098       12.82688       22.23779        0.417
       15.01208       12.73080       23.68877        0.417
       22.87617       22.05190       24.78626       -0.834
       22.81098       21.66127       25.65769        0.417
       23.35251       22.87045       24.92522        0.417
       11.72369       10.24280       28.23516       -0.834
       12.62692       10.47352       28.01796        0.417
       11.41620        9.74054       27.48056        0.417
        6.08390        9.92919       12.62173       -0.834
        6.91551        9.46619       12.72327        0.417
        5.54015        9.60626       13.34026        0.417
       28.43190       18.21385       18.12283       -0.834
       29.23280       17.68989       18.13899        0.417
       28.45325       18.71013       18.94105        0.417
       31.08909       18.16447       11.80808       -0.834
       30.76835       17.92119       10.93964        0.417
       30.46948       17.75941       12.41490        0.417
       10.31916       24.78035       16.04742       -0.834
       10.36354       24.05840       16.67435        0.417
       11.15773       24.75016       15.58689        0.417
       20.17030       20.61449       27.01828       -0.834
       19.44162       21.22838       26.92666        0.417
       20.16151       20.36791       27.94314        0.417