%Nproc=32
%Mem=120Gb
%chk=temp.chk
#p cam-b3lyp/6-31+G(d,p) nosymm charge Freq 

Calculation for S0 with freq for abs spect

0  1
 C         15.46032       16.77307       15.59979
 C         17.83863       16.45597       15.86149
 C         17.74365       16.42249       17.22631
 C         16.46359       16.51173       17.86003
 N         15.40976       16.82193       16.95863
 H         18.74567       16.50149       15.40348
 H         18.67340       16.24106       17.82010
 O         16.30107       16.45675       19.06339
 O         14.47356       16.91040       14.94464
 N         16.73901       16.57064       15.10131
 H         16.77401       16.42461       14.13160
 H         14.44932       16.95393       17.33257
 O         15.28576       15.75789       11.80071
 H         15.04866       16.02636       10.91304
 H         14.44936       15.56640       12.22498
 O         12.96356       12.76928       16.69247
 H         12.38738       13.21741       17.31169
 H         13.01336       13.35960       15.94062
 O         20.80588       18.50481       18.52966
 H         21.29144       17.70789       18.74269
 H         20.10059       18.53613       19.17605
 O         21.48400       13.84857       15.26480
 H         22.04084       13.96397       14.49484
 H         21.09644       14.71130       15.41218
 O         18.46462       15.54782       20.77768
 H         18.20464       16.20130       21.42699
 H         17.66294       15.36382       20.28809
 O         16.35647       21.10807       15.89508
 H         16.48372       22.03457       15.69105
 H         17.18580       20.69375       15.65679
 O         14.89646       18.37787       21.07231
 H         13.95873       18.27093       20.91274
 H         15.31609       17.80781       20.42797
 O         14.22090       13.91276       20.50506
 H         13.50596       13.27875       20.44928
 H         13.92650       14.65367       19.97533
 O         12.77280       14.45679       14.43489
 H         13.09503       15.30501       14.73966
 H         12.59394       14.58845       13.50381
 O         18.73673       20.29438       14.32377
 H         18.10835       19.75839       13.83995
 H         19.17400       20.81708       13.65160
 O         13.86903       19.20781       13.11274
 H         14.03232       18.63675       13.86338
 H         13.01787       19.60605       13.29484
 O         18.34366       17.08996       11.96359
 H         18.06656       16.69263       11.13801
 H         17.94086       17.95827       11.95915
 O         18.83009       20.48852       17.85047
 H         18.09034       20.29494       18.42626
 H         19.54795       19.95746       18.19526
 O         12.70912       17.67846       18.06576
 H         12.52958       17.86649       18.98698
 H         12.27186       18.38289       17.58740
 O         12.13068       15.02075       18.16028
 H         11.23937       14.92774       18.49663
 H         12.30710       15.96050       18.20467
 O         20.36997       15.88500       13.63749
 H         19.88712       16.36474       12.96448
 H         21.09371       16.46537       13.87328
 O         16.88044       13.61416       12.47341
 H         16.73595       14.49477       12.12718
 H         16.30115       13.05480       11.95595
 O         16.80895       19.40382       12.68878
 H         15.86260       19.40764       12.83241
 H         16.91812       19.74140       11.79977
 O         18.08184       12.68124       16.45074
 H         18.01734       13.26261       15.69306
 H         17.22505       12.74166       16.87322
 O         15.65170       13.25755       17.47597
 H         14.71297       13.16897       17.31115
 H         15.77318       12.91552       18.36169
 O         15.29115       12.48476       14.27459
 H         14.62357       12.34005       13.60405
 H         16.04584       12.82319       13.79278
 
       10.22318       12.08717        8.65451       -0.834
       10.37133       12.03508        7.71028        0.417
       11.09489       12.21907        9.02728        0.417
       15.76334       14.67911       22.39898       -0.834
       15.22744       14.38683       21.66168        0.417
       15.14032       15.08234       23.00351        0.417
       10.58805       15.07546        7.99839       -0.834
        9.96093       15.46078        8.61034        0.417
       10.40340       14.13664        8.02493        0.417
        6.59147       18.84826       11.37864       -0.834
        7.18235       18.97283       10.63596        0.417
        5.77770       19.27610       11.11226        0.417
       23.05394       27.06810       21.16636       -0.834
       23.98619       26.93440       20.99529        0.417
       22.66071       26.20441       21.04131        0.417
       18.12038       23.05570        8.05594       -0.834
       18.52517       22.56312        7.34198        0.417
       17.32721       23.42834        7.67089        0.417
       21.03580       24.53941       13.70005       -0.834
       20.15827       24.69224       14.05049        0.417
       21.61163       24.59384       14.46273        0.417
       19.48114        8.36789       27.85087       -0.834
       20.27503        8.87497       28.02069        0.417
       19.79871        7.49465       27.62101        0.417
       28.65026       21.03464        9.38841       -0.834
       29.32092       21.62387        9.04308        0.417
       28.92922       20.85327       10.28592        0.417
       16.77754        8.37395       27.32312       -0.834
       17.72654        8.36782       27.44797        0.417
       16.63566        7.84833       26.53583        0.417
        9.79888        6.96240       23.19769       -0.834
        9.07870        6.48391       22.78713        0.417
       10.23490        7.40893       22.47193        0.417
       17.71575       10.61456        5.64590       -0.834
       18.15031       10.57597        4.79390        0.417
       16.89613       11.07904        5.47643        0.417
       16.48925       23.30981       23.88646       -0.834
       17.16357       22.87875       23.36137        0.417
       16.53587       24.23031       23.62814        0.417
        5.65187       15.85462       23.41050       -0.834
        6.39570       15.39427       23.79913        0.417
        5.49182       16.59211       23.99934        0.417
        7.96288       12.08462       24.24020       -0.834
        7.62983       12.48785       23.43851        0.417
        7.31167       12.30271       24.90697        0.417
        3.89514        9.97030       21.01351       -0.834
        4.83472        9.88789       21.17666        0.417
        3.62764        9.10343       20.70818        0.417
       24.49059       25.93181        8.71317       -0.834
       24.97204       25.61160        7.95035        0.417
       25.04406       26.62516        9.07258        0.417
       22.77967       10.71618       22.10740       -0.834
       23.68092       11.03814       22.12507        0.417
       22.58557       10.49601       23.01849        0.417
       13.81938       22.41098        6.34700       -0.834
       13.62077       23.33533        6.49658        0.417
       12.97436       21.96822        6.42530        0.417
       16.38658       20.55476       25.97482       -0.834
       16.78587       21.42303       25.92097        0.417
       16.60949       20.24205       26.85161        0.417
       23.63576       12.11619       18.66348       -0.834
       23.74185       12.91030       19.18729        0.417
       22.93699       11.63090       19.10217        0.417
       25.06016       19.55321       15.58671       -0.834
       24.97572       18.83419       14.96052        0.417
       25.64196       19.21260       16.26621        0.417
        4.86223       18.01413       25.47243       -0.834
        4.04598       18.48717       25.63431        0.417
        5.53777       18.55352       25.88346        0.417
       25.81952       13.99244       23.50630       -0.834
       25.44126       14.52353       22.80553        0.417
       26.65730       14.41276       23.70044        0.417
        6.12794       11.60428       15.18148       -0.834
        6.33896       11.79991       14.26856        0.417
        5.52473       10.86253       15.13473        0.417
       20.08115       22.09698       12.66367       -0.834
       20.66220       22.73887       13.07182        0.417
       19.90399       22.45309       11.79302        0.417
        8.66817       25.13257       10.37807       -0.834
        8.61294       25.85546       11.00306        0.417
        7.93010       25.27149        9.78461        0.417
       11.43695       16.87078        2.28891       -0.834
       10.88316       17.18953        1.57621        0.417
       11.60858       17.64545        2.82432        0.417
       28.80266       12.40766       10.16270       -0.834
       28.29214       12.03309        9.44485        0.417
       29.41664       13.00438        9.73470        0.417
       13.20220       24.24577        9.24558       -0.834
       13.87177       23.93680        9.85587        0.417
       12.37576       24.11843        9.71143        0.417
        8.67659       26.66098       18.05304       -0.834
        9.44771       26.34646       18.52494        0.417
        8.40028       27.43946       18.53662        0.417
       29.62494       19.80046       17.70967       -0.834
       29.63669       20.06901       16.79099        0.417
       28.85167       20.23004       18.07540        0.417
       19.99961        8.61722       17.60756       -0.834
       20.00730        9.56697       17.48865        0.417
       20.79070        8.43231       18.11374        0.417
       10.43842       18.70737       11.55091       -0.834
       11.14747       18.21731       11.96722        0.417
       10.20052       19.37683       12.19236        0.417
        8.33619       17.24070       26.67175       -0.834
        9.09028       16.85319       27.11607        0.417
        8.65713       18.08009       26.34213        0.417
       22.45917       14.86612       22.81584       -0.834
       21.65126       14.35298       22.80282        0.417
       22.66640       14.96393       23.74520        0.417
       16.19888       11.15975       10.88738       -0.834
       16.72923       10.89332       11.63837        0.417
       15.96952       10.33865       10.45216        0.417
       20.67412        1.64452       14.48158       -0.834
       20.40790        1.00402       15.14121        0.417
       20.77963        2.46145       14.96916        0.417
       16.51083       28.46591       24.24213       -0.834
       16.09614       27.99036       23.52233        0.417
       15.87537       28.42167       24.95660        0.417
       13.63852       19.31489        6.10022       -0.834
       14.24205       20.03288        6.29122        0.417
       12.99042       19.35261        6.80361        0.417
       24.62600       24.89459       18.03973       -0.834
       24.84605       25.18708       18.92419        0.417
       23.79837       24.42457       18.14136        0.417
        9.02415       24.45863       24.02812       -0.834
        9.50656       23.63861       24.13338        0.417
        9.35680       24.82955       23.21081        0.417
       20.04554       14.70717        1.86207       -0.834
       19.59856       14.91211        1.04083        0.417
       20.30646       15.55887        2.21235        0.417
       21.63840        9.03681       14.41322       -0.834
       21.36607        9.56274       15.16520        0.417
       21.57745        8.13171       14.71869        0.417
       22.54585       12.49653       26.51710       -0.834
       22.62598       13.39974       26.21045        0.417
       21.62189       12.40289       26.74896        0.417
       26.61207       14.77348        6.64710       -0.834
       27.35195       14.30598        6.25947        0.417
       26.92503       15.04457        7.51012        0.417
       17.63578       27.48174       12.05987       -0.834
       18.24509       26.79479       11.78955        0.417
       17.75724       28.17793       11.41428        0.417
       28.24690       10.61499       14.86899       -0.834
       29.15715       10.32526       14.93012        0.417
       28.11138       10.78540       13.93688        0.417
       21.86752        4.61506       22.35525       -0.834
       21.14447        4.61132       22.98247        0.417
       21.44901        4.47576       21.50573        0.417
       22.74298       15.17101       25.70262       -0.834
       21.97263       15.47804       26.18065        0.417
       23.43563       15.78637       25.94305        0.417
       20.49097        3.74029       20.16496       -0.834
       20.35755        4.37555       19.46148        0.417
       20.87734        2.97950       19.73121        0.417
       18.52691        6.39260       10.44796       -0.834
       17.72948        6.57559       10.94481        0.417
       18.71104        7.20761        9.98098        0.417
       25.70042       28.20524       14.74214       -0.834
       26.17032       27.42129       15.02649        0.417
       24.78874       28.03865       14.98156        0.417
       17.93461        8.43403        7.35592       -0.834
       18.60609        8.91667        7.83800        0.417
       17.58141        9.07042        6.73423        0.417
        7.32076       10.87224       27.31490       -0.834
        7.12033       11.75962       27.01723        0.417
        8.17052       10.67341       26.92170        0.417
        6.65832       16.15138       28.38330       -0.834
        7.12545       16.46953       27.61077        0.417
        5.76169       16.46605       28.26808        0.417
       10.74161       29.56341       20.47577       -0.834
       10.80011       30.46095       20.14832        0.417
        9.82964       29.31300       20.32799        0.417
       11.47835        9.69185        4.93940       -0.834
       11.09467        9.02518        4.36970        0.417
       12.27221        9.28396        5.28530        0.417
       15.05000       11.51994        4.28951       -0.834
       15.30647       12.15759        3.62329        0.417
       14.70543       10.77839        3.79192        0.417
       27.90505       19.52954       13.86973       -0.834
       27.42443       18.72083       14.04645        0.417
       27.37060       20.21778       14.26586        0.417
       11.58029       19.23664       28.21214       -0.834
       11.74987       19.17633       29.15226        0.417
       12.44374       19.36812       27.82048        0.417
       20.78752       20.28373        6.24872       -0.834
       20.90113       19.40374        5.88963        0.417
       21.63531       20.49463        6.63986        0.417
       20.25346       22.27377       16.20140       -0.834
       19.66201       21.69254       16.67952        0.417
       20.39726       21.83355       15.36368        0.417
       25.56438       17.84406        9.83710       -0.834
       25.35658       17.07424       10.36666        0.417
       25.46547       18.58253       10.43802        0.417
        5.20337       22.19428        9.41292       -0.834
        5.77164       22.43242        8.68040        0.417
        5.31594       22.90447       10.04473        0.417
        7.05057       12.33719       12.64169       -0.834
        7.80125       12.92204       12.53842        0.417
        7.09878       11.74941       11.88775        0.417
        5.43561       17.12405       19.99416       -0.834
        4.84299       16.76560       20.65488        0.417
        6.29022       17.14568       20.42474        0.417
       17.89671       24.09019       13.09544       -0.834
       17.78005       23.35337       12.49568        0.417
       18.40824       24.72708       12.59651        0.417
       16.94049       20.49265       21.47070       -0.834
       16.64374       21.23517       20.94456        0.417
       16.21432       19.86988       21.43799        0.417
       31.66733       17.80090       17.65510       -0.834
       31.01726       18.48110       17.83108        0.417
       32.19506       18.15298       16.93832        0.417
       14.26044       29.46383        9.46227       -0.834
       14.80614       30.05411        9.98190        0.417
       13.69712       30.04515        8.95141        0.417
       26.75749       21.26698       26.56929       -0.834
       25.96246       21.19652       26.04090        0.417
       26.55942       21.94893       27.21112        0.417
        4.86522       22.63518       19.25665       -0.834
        4.57407       22.28249       18.41577        0.417
        4.06768       22.68961       19.78315        0.417
       24.47890       19.87279       11.37079       -0.834
       23.56911       19.74311       11.10301        0.417
       24.43195       20.51939       12.07502        0.417
       12.49161        5.56754       24.00324       -0.834
       12.35167        5.07899       24.81440        0.417
       11.61482        5.84061       23.73325        0.417
       21.97178       10.27484       24.67110       -0.834
       21.20462       10.84388       24.73352        0.417
       22.65414       10.73775       25.15724        0.417
       23.80868       16.05100       13.79958       -0.834
       23.64982       15.10716       13.81256        0.417
       23.17242       16.40998       14.41808        0.417
       19.92855       26.31966       21.67501       -0.834
       20.86344       26.12680       21.74587        0.417
       19.77932       27.02054       22.30962        0.417
       11.09232       18.83591        7.17309       -0.834
       11.38360       18.17457        6.54538        0.417
       10.40245       18.40250        7.67556        0.417
       19.35424       28.16425       23.55276       -0.834
       18.47210       28.53112       23.61164        0.417
       19.47033       27.68550       24.37346        0.417
       23.04923       25.70472       15.69367       -0.834
       22.59209       25.97898       16.48868        0.417
       23.86235       25.30983       16.00851        0.417
       23.65491       23.47523        6.74099       -0.834
       23.39451       23.97792        5.96916        0.417
       24.58866       23.30717        6.61413        0.417
       30.81051       15.21491       17.86224       -0.834
       31.07021       16.13486       17.81252        0.417
       31.10744       14.83665       17.03460        0.417
       24.55150       18.01214       28.18158       -0.834
       24.04690       18.27080       28.95275        0.417
       23.90436       17.95819       27.47835        0.417
       12.17642       11.91160       23.95317       -0.834
       12.10274       10.96365       23.84281        0.417
       12.98099       12.03269       24.45739        0.417
       22.32753        6.13206       16.54004       -0.834
       23.24633        6.06867       16.27924        0.417
       22.33447        6.70645       17.30571        0.417
       16.33882       21.81296        2.28317       -0.834
       15.41650       21.95416        2.49675        0.417
       16.81742       22.21996        3.00534        0.417
       21.14231       13.74249        9.98998       -0.834
       20.78554       12.92427        9.64435        0.417
       21.03100       13.67131       10.93802        0.417
       21.17228       28.92464       14.61688       -0.834
       21.61740       29.10631       15.44458        0.417
       21.30620       29.71503       14.09384        0.417
       22.38729       15.66150        5.72890       -0.834
       22.84351       16.22676        6.35226        0.417
       21.92691       16.26723        5.14806        0.417
       13.56666       23.38094       14.93814       -0.834
       14.52321       23.40226       14.96626        0.417
       13.30139       23.29996       15.85427        0.417
        8.35012       15.00423       12.49599       -0.834
        9.12073       15.01017       13.06377        0.417
        7.62102       15.21643       13.07875        0.417
       13.89481        4.09446       12.21356       -0.834
       13.14496        4.67787       12.09702        0.417
       14.51227        4.59991       12.74223        0.417
       27.29367       26.15472       15.25843       -0.834
       27.21790       25.61311       14.47284        0.417
       27.72993       25.59109       15.89735        0.417
       10.97314       25.37745       16.08128       -0.834
       11.37649       25.78316       15.31386        0.417
       10.03376       25.51547       15.95984        0.417
       10.49771        7.68216       14.64277       -0.834
       10.14725        8.17355       15.38570        0.417
       11.20136        7.15160       15.01642        0.417
       17.00030       22.89161        4.81259       -0.834
       16.63541       23.77279        4.89385        0.417
       17.91697       22.98666        5.07129        0.417
        6.51193       15.70363       14.43265       -0.834
        6.24257       16.60811       14.59264        0.417
        5.71246       15.26232       14.14573        0.417
       15.55475       20.89477        7.82051       -0.834
       15.08068       21.60242        7.38380        0.417
       16.39904       20.85834        7.37097        0.417
       16.37325       25.04913        6.61377       -0.834
       15.65233       24.87414        6.00889        0.417
       16.29530       25.98131        6.81677        0.417
       10.91023       16.87178        5.16450       -0.834
       10.21835       16.30773        5.51002        0.417
       10.94820       16.66098        4.23157        0.417
        5.08306       24.34613       11.49120       -0.834
        4.73156       25.14980       11.87434        0.417
        5.96202       24.58502       11.19693        0.417
       15.25776        4.96113       14.68872       -0.834
       15.49134        4.23875       15.27168        0.417
       15.77895        5.70039       15.00191        0.417
       27.67378       15.10435        9.22694       -0.834
       27.83566       14.72111       10.08901        0.417
       28.49166       15.54919        9.00464        0.417
       24.82129       24.07072       24.92714       -0.834
       25.05755       23.46909       25.63315        0.417
       25.61878       24.15183       24.40401        0.417
       16.09332        2.64461       16.04049       -0.834
       16.93205        2.98182       16.35520        0.417
       15.92332        1.87685       16.58628        0.417
       14.41881       13.03807       27.66386       -0.834
       13.93964       13.85353       27.51664        0.417
       14.23695       12.81430       28.57659        0.417
       23.16514        9.63258        6.90049       -0.834
       22.81935        8.92692        6.35394        0.417
       22.39579        9.99460        7.34012        0.417
        9.40437       23.42471       28.12358       -0.834
        9.57087       22.91232       28.91476        0.417
        9.84063       22.93658       27.42529        0.417
       15.04044       28.51814       15.66202       -0.834
       14.95958       28.41101       16.60976        0.417
       14.13757       28.53603       15.34463        0.417
       19.12577       14.05896       29.58122       -0.834
       18.48182       14.56208       29.08279        0.417
       19.58765       14.71308       30.10564        0.417
        7.83515       18.75690       29.03292       -0.834
        7.96377       18.34598       28.17803        0.417
        8.72100       18.92810       29.35260        0.417
       19.46293        5.56604       18.30516       -0.834
       19.30192        6.33588       18.85072        0.417
       19.61099        5.92005       17.42824        0.417
       19.98192        6.61193        6.26521       -0.834
       19.32499        7.10306        6.75863        0.417
       20.48669        7.28219        5.80455        0.417
       14.20167       21.89918       22.49482       -0.834
       14.83972       22.60904       22.42248        0.417
       13.43269       22.21866       22.02277        0.417
       14.63629        9.80073       20.32411       -0.834
       14.27184       10.22859       19.54929        0.417
       15.00939       10.51561       20.83984        0.417
       12.43622       15.22597       11.64607       -0.834
       12.41728       15.77985       10.86563        0.417
       12.54822       14.33778       11.30733        0.417
       28.14642        6.14414       14.81521       -0.834
       27.64298        6.85410       15.21363        0.417
       27.49737        5.46651       14.62604        0.417
       23.13663       20.35233       18.06395       -0.834
       22.30205       19.99021       17.76633        0.417
       23.68727       20.36110       17.28103        0.417
       20.63376       12.27051       21.64982       -0.834
       21.41455       11.71689       21.65985        0.417
       20.18837       12.07221       22.47355        0.417
       10.00487       30.73298       14.98259       -0.834
       10.73164       30.29768       15.42817        0.417
       10.25132       31.65781       14.96856        0.417
       28.17518       23.86225       17.07496       -0.834
       27.95084       23.09617       17.60318        0.417
       29.00569       23.63179       16.65857        0.417
       15.94055       11.53217       21.91085       -0.834
       16.87022       11.53079       21.68292        0.417
       15.75835       12.43540       22.17009        0.417
       11.89155       26.22581       13.54844       -0.834
       12.41471       26.84050       13.03396        0.417
       12.05998       25.37313       13.14745        0.417
       27.70952       18.23214       19.98133       -0.834
       27.88309       18.56258       20.86275        0.417
       28.47432       18.49760       19.47059        0.417
       14.74535       11.55218        7.13384       -0.834
       15.04006       12.46224        7.09960        0.417
       14.93625       11.20515        6.26243        0.417
       22.53335       19.01559       26.39794       -0.834
       21.74140       18.95389       25.86385        0.417
       22.26747       19.52503       27.16345        0.417
       19.58461        5.28207       24.12636       -0.834
       20.22543        5.97734       24.27527        0.417
       19.06916        5.58670       23.37954        0.417
       13.10870       15.21032        6.64860       -0.834
       12.17088       15.33769        6.79177        0.417
       13.16288       14.43717        6.08691        0.417
       10.35541       26.20954       26.08010       -0.834
       10.16043       26.63804       25.24667        0.417
        9.86078       25.39059       26.05039        0.417
       17.97163       25.51938       25.86791       -0.834
       18.86139       25.79180       26.09228        0.417
       17.78688       25.96189       25.03948        0.417
       14.24257       23.25026       25.69917       -0.834
       15.11548       23.23057       25.30689        0.417
       14.19790       24.09724       26.14285        0.417
       20.45355       26.37442       26.20799       -0.834
       21.01416       25.79444       26.72333        0.417
       20.57041       27.23708       26.60597        0.417
       25.33107        8.52053       22.87684       -0.834
       26.08326        8.16963       22.40006        0.417
       25.49925        9.46124       22.93162        0.417
       21.99736       13.07057        7.08646       -0.834
       22.85347       13.49718        7.05019        0.417
       21.56068       13.33970        6.27832        0.417
        7.85973       15.58578       17.12140       -0.834
        7.21037       16.28148       17.22419        0.417
        7.95178       15.48142       16.17437        0.417
       13.82992       22.37368        3.30036       -0.834
       13.60102       22.35275        4.22955        0.417
       13.51954       23.22644        2.99589        0.417
       17.87864       16.25472        9.08321       -0.834
       18.76499       16.16947        8.73200        0.417
       17.61781       17.14874        8.86199        0.417
        6.67790        4.67963       16.42569       -0.834
        6.77267        5.39871       17.05032        0.417
        6.37429        3.94136       16.95391        0.417
       22.50928       29.65536       20.14821       -0.834
       22.65126       30.41131       20.71796        0.417
       22.54742       28.90109       20.73630        0.417
       21.39351       29.79232       23.23238       -0.834
       20.72755       29.12760       23.05664        0.417
       20.96746       30.62183       23.01643        0.417
        8.90293       19.54246       25.61305       -0.834
        9.11259       20.44409       25.85667        0.417
        9.46694       19.35957       24.86162        0.417
       15.27908        8.56846       11.65029       -0.834
       14.43093        8.46051       12.08066        0.417
       15.30459        7.87354       10.99252        0.417
       19.68414       21.27375       30.04425       -0.834
       20.09131       21.08737       30.89022        0.417
       18.97276       21.88064       30.24881        0.417
        3.26478       19.32180       22.77667       -0.834
        3.85477       19.02165       23.46809        0.417
        2.42209       19.44026       23.21494        0.417
       22.80854       27.07301       13.14991       -0.834
       22.12125       27.40685       13.72646        0.417
       23.28731       26.44213       13.68751        0.417
       10.04249       11.25104       25.62428       -0.834
        9.25009       11.41525       25.11309        0.417
       10.75491       11.57578       25.07361        0.417
        3.70404       15.97756       21.60822       -0.834