%Nproc=32
%Mem=120Gb
%chk=temp.chk
#p cam-b3lyp/6-31+G(d,p) nosymm charge Freq 

Calculation for S0 with freq for abs spect

0  1
 C         17.45853       17.23347       17.78377
 C         15.57168       17.35518       16.19160
 C         15.98697       16.21276       15.57770
 C         17.16540       15.49975       16.07997
 N         17.76384       16.10153       17.15054
 H         14.63642       17.82366       15.93554
 H         15.48533       15.84851       14.71499
 O         17.64831       14.51897       15.58413
 O         18.18262       17.75738       18.63949
 N         16.31709       17.91850       17.20805
 H         16.19919       18.83551       17.47394
 H         18.71806       15.78108       17.34301
 O         20.76654       15.47210       17.94739
 H         21.10313       14.81473       18.55633
 H         21.10198       16.30364       18.28242
 O         12.30125       15.80815       15.77395
 H         11.88185       15.54265       14.95552
 H         12.97071       16.43815       15.50720
 O         19.18762       14.34886       21.01704
 H         18.94456       15.25088       20.80841
 H         18.71131       14.15244       21.82375
 O         16.63712       11.25494       15.95305
 H         16.15235       12.07895       15.90590
 H         16.30073       10.73643       15.22215
 O         17.57081       16.87897       21.50262
 H         17.70743       17.38952       22.30069
 H         16.73138       17.18727       21.16126
 O         15.07777       14.60573       18.91069
 H         15.11290       14.03229       18.14508
 H         15.26735       14.02943       19.65108
 O         19.42209       12.58290       17.12055
 H         18.79677       13.03302       16.55256
 H         20.23577       13.07706       17.02078
 O         14.13002       17.91531       13.27197
 H         13.20194       18.10556       13.40873
 H         14.52587       18.76809       13.09225
 O         13.31698       16.68837       18.28400
 H         12.69357       16.29637       17.67251
 H         13.77922       15.94255       18.66653
 O         19.73863       20.21406       19.39700
 H         19.75289       19.86459       20.28801
 H         19.42328       19.48763       18.85932
 O         13.13959       19.38812       18.29230
 H         13.19034       18.43298       18.32940
 H         12.96390       19.65434       19.19479
 O         17.37459       12.93359       13.26067
 H         18.07981       12.28838       13.20951
 H         17.49341       13.35188       14.11341
 O         21.01453       16.77551       14.90564
 H         20.41408       16.36694       15.52916
 H         21.38962       16.04223       14.41795
 O         16.27851       20.72069       16.79853
 H         15.42233       21.11750       16.63812
 H         16.77615       20.89235       15.99908
 O         17.09896       19.78936       20.32768
 H         16.27718       19.32193       20.47743
 H         17.67736       19.13721       19.93221
 O         14.18198       12.94725       16.31947
 H         14.17814       13.13428       15.38073
 H         13.71635       12.11484       16.40024
 O         15.13840       18.10364       20.46030
 H         14.72482       17.75189       19.67197
 H         14.44195       18.10394       21.11695
 
       21.05475       17.34373       28.13371       -0.834
       21.20853       17.86333       28.92276        0.417
       20.34513       17.79935       27.68084        0.417
       17.40704        2.56278       20.40880       -0.834
       18.05842        2.44156       19.71797        0.417
       17.75193        3.28000       20.94066        0.417
        8.57998       12.09009        5.13826       -0.834
        8.48106       12.03765        6.08887        0.417
        7.68517       12.04666        4.80112        0.417
       16.76849        4.87864       25.22818       -0.834
       17.40589        5.54208       24.96406        0.417
       15.92914        5.21286       24.91194        0.417
        3.97802       13.30275       16.75821       -0.834
        4.20330       14.20819       16.97188        0.417
        3.97930       13.27452       15.80143        0.417
       18.31634       17.47900       11.10304       -0.834
       18.08151       18.11050       10.42312        0.417
       18.99532       17.91871       11.61479        0.417
       23.62099        9.17738       27.53430       -0.834
       23.73682        9.89642       28.15543        0.417
       24.25293        8.51488       27.81354        0.417
       28.65895       25.28466       17.07475       -0.834
       28.31507       25.80348       17.80195        0.417
       29.29442       25.86002       16.64887        0.417
       28.71587       16.91530       24.46930       -0.834
       28.11368       16.22654       24.75072        0.417
       29.50340       16.44707       24.19222        0.417
       10.54439       19.59541        8.82327       -0.834
       11.10221       19.95994        8.13611        0.417
        9.67776       19.96248        8.64878        0.417
       25.13664       11.84315       11.06991       -0.834
       24.69177       12.23349       10.31761        0.417
       24.42959       11.49163       11.61097        0.417
       28.70775       19.37089       17.42507       -0.834
       27.93496       19.39732       16.86086        0.417
       28.53664       20.03030       18.09747        0.417
       10.21955       12.56217       11.27509       -0.834
        9.39495       12.27279       11.66563        0.417
        9.99516       13.36844       10.81053        0.417
       30.14415       14.47791       22.22511       -0.834
       30.40851       15.35581       21.95009        0.417
       29.25709       14.37537       21.88039        0.417
       23.39771       16.41925       27.23980       -0.834
       23.80055       16.58355       28.09242        0.417
       22.49499       16.72189       27.33857        0.417
       15.39192       24.14650       28.71593       -0.834
       16.19217       23.65129       28.54103        0.417
       14.82025       23.52659       29.16886        0.417
       11.79615       21.26594       24.35070       -0.834
       12.66792       21.63815       24.48377        0.417
       11.35556       21.88779       23.77157        0.417
       24.86394       24.43566        7.50609       -0.834
       24.76112       25.38156        7.61066        0.417
       25.78807       24.27242        7.69467        0.417
       18.26624       23.61028       24.74319       -0.834
       17.88252       24.13292       24.03904        0.417
       19.07036       24.07452       24.97579        0.417
       21.27741       24.07581       17.01084       -0.834
       21.40282       23.13479       16.88842        0.417
       21.44556       24.45458       16.14800        0.417
       20.17624       25.29662       19.62547       -0.834
       20.45504       24.55516       20.16282        0.417
       20.33150       25.01210       18.72482        0.417
       14.29480        9.37282        4.25022       -0.834
       14.64842        9.99779        3.61729        0.417
       13.34854        9.39657        4.10792        0.417
        5.04901       22.91583       23.34319       -0.834
        5.08480       23.10305       24.28122        0.417
        5.88951       22.50100       23.14903        0.417
       11.73942       23.81695        9.30502       -0.834
       11.49320       24.17284        8.45124        0.417
       12.11911       24.55984        9.77424        0.417
       21.45465       27.65603       16.15126       -0.834
       21.42736       28.57669       16.41176        0.417
       20.58488       27.48262       15.79118        0.417
       18.96698       13.22388       29.02110       -0.834
       18.91744       13.94650       28.39531        0.417
       19.69461       13.45566       29.59822        0.417
       23.44643       10.66397       13.58723       -0.834
       22.75339       10.29557       13.03932        0.417
       24.01668        9.92098       13.78475        0.417
       17.00728       24.43914       13.37574       -0.834
       17.59495       25.04900       13.82179        0.417
       16.98102       23.67075       13.94592        0.417
       13.52385       12.42424       23.24449       -0.834
       12.90678       12.39688       23.97573        0.417
       13.64739       13.35716       23.06951        0.417
       11.44823       15.04407       13.36506       -0.834
       10.54559       15.30410       13.18104        0.417
       11.98224       15.65568       12.85813        0.417
        5.30316        8.09288       13.89767       -0.834
        5.09993        7.50162       14.62248        0.417
        6.17592        7.82677       13.60838        0.417
       17.54057        5.89012       13.04300       -0.834
       18.40036        6.23871       13.27855        0.417
       17.65205        5.55815       12.15216        0.417
       17.02342       13.76285        5.36155       -0.834
       16.70945       13.87111        4.46381        0.417
       16.22749       13.66220        5.88364        0.417
       23.55128       23.85997       23.14377       -0.834
       23.25090       24.75549       22.98869        0.417
       23.86361       23.56037       22.29000        0.417
       26.74241       28.78132       13.91142       -0.834
       26.89107       28.63712       12.97689        0.417
       26.30950       27.98215       14.21167        0.417
       22.67075       21.13455       11.81138       -0.834
       23.18518       21.93521       11.70877        0.417
       23.02253       20.72276       12.60062        0.417
       21.26558       15.10946        6.35025       -0.834
       21.70534       15.90142        6.65950        0.417
       20.33265       15.31737        6.40166        0.417
       19.07034        2.83512       23.55167       -0.834
       18.83371        3.52999       22.93734        0.417
       18.42400        2.90553       24.25419        0.417
       11.50120       17.56751       10.09175       -0.834
       11.09435       18.31840        9.65946        0.417
       12.27242       17.37290        9.55926        0.417
       24.58000       23.41224       27.37974       -0.834
       24.19222       23.51809       28.24845        0.417
       25.14680       22.64527       27.46176        0.417
       24.79708        6.10450       22.11244       -0.834
       25.70894        6.20431       22.38590        0.417
       24.61182        5.17281       22.23018        0.417
       21.52464       27.73047       10.19070       -0.834
       21.42611       27.84914       11.13539        0.417
       21.20003       26.84539       10.02486        0.417
       22.63487       11.57261        4.50673       -0.834
       22.26940       10.73276        4.78478        0.417
       23.12214       11.36972        3.70821        0.417
       23.93938       19.63085        3.40456       -0.834
       23.69659       20.52524        3.64404        0.417
       23.10685       19.16099        3.35608        0.417
       11.02599       19.64966       12.04832       -0.834
       11.60245       18.94632       11.74960        0.417
       11.43575       20.45076       11.72186        0.417
       16.29517       26.44396        5.91741       -0.834
       16.70275       25.67843        5.51238        0.417
       15.56174       26.65854        5.34101        0.417
       10.62071        8.29234       25.70019       -0.834
        9.67207        8.19651       25.61576        0.417
       10.96932        7.97126       24.86856        0.417
       17.07793       14.84518       11.36916       -0.834
       17.29229       14.11424       11.94883        0.417
       17.53561       15.59507       11.74920        0.417
        7.28982       21.76407       22.63383       -0.834
        7.42559       20.82396       22.51559        0.417
        7.94466       22.17407       22.06876        0.417
       26.87329        5.82539       15.35351       -0.834
       26.82687        6.76652       15.18515        0.417
       26.20388        5.44638       14.78389        0.417
       15.79974       13.67501        2.87883       -0.834
       15.02167       13.17355        2.63515        0.417
       16.52472       13.05868        2.77498        0.417
        7.17344        6.15265       12.29697       -0.834
        6.22865        6.00114       12.27157        0.417
        7.55021        5.39410       11.85099        0.417
       17.84444       20.11422        6.72015       -0.834
       17.16627       20.58775        6.23839        0.417
       18.42693       20.79858        7.04968        0.417
        8.88172       21.66080        5.24136       -0.834
        9.81934       21.84595        5.18837        0.417
        8.73821       20.96365        4.60134        0.417
       27.11428       20.83789        9.53724       -0.834
       27.29615       20.07236       10.08232        0.417
       26.37221       20.57425        8.99313        0.417
       10.88539        9.42388       11.20792       -0.834
       10.91181       10.32605       10.88913        0.417
       11.62627        9.36056       11.81069        0.417
       16.39603       12.46785       25.37462       -0.834
       15.90810       11.82775       24.85651        0.417
       16.44177       12.08332       26.24999        0.417
       19.46885        8.29433        7.28123       -0.834
       19.01530        9.09016        7.55904        0.417
       18.98787        7.58358        7.70516        0.417
       18.21542        9.18259       26.96165       -0.834
       19.09952        9.37888       27.27160        0.417
       18.32324        9.00091       26.02805        0.417
       24.22750        6.00175       18.87392       -0.834
       24.36253        6.61470       19.59661        0.417
       25.08349        5.59426       18.74173        0.417
        6.05341       20.46604       16.75605       -0.834
        5.55251       20.70421       15.97591        0.417
        5.44471       20.60061       17.48241        0.417
       21.29678       12.39804       21.66298       -0.834
       20.93024       11.51829       21.75204        0.417
       20.61671       12.89665       21.21007        0.417
       20.43114       20.50692        2.56758       -0.834
       20.82935       20.87487        1.77874        0.417
       20.87818       19.67003        2.69409        0.417
       21.84903        8.10401        6.13843       -0.834
       21.00812        8.24018        6.57497        0.417
       22.39488        7.67510        6.79747        0.417
       26.36743       16.19448        5.75535       -0.834
       26.43750       16.79879        5.01636        0.417
       26.95164       15.47061        5.52965        0.417
       11.54795       10.63365       21.43338       -0.834
       11.70647       11.16556       20.65353        0.417
       12.27190       10.84838       22.02158        0.417
       27.68593       13.58491        9.44492       -0.834
       26.75300       13.50697        9.24546        0.417
       28.07805       13.91131        8.63502        0.417
       16.76245       16.21804       25.03577       -0.834
       16.35250       16.73083       25.73235        0.417
       16.07961       16.12694       24.37120        0.417
        8.45671       11.33844        7.72853       -0.834
        7.96151       10.62462        8.13037        0.417
        9.37320       11.08159        7.83003        0.417
       14.57402       30.12412       15.84178       -0.834
       14.78083       31.02510       15.59337        0.417
       13.70449       30.17808       16.23832        0.417
        8.69382       12.95931       16.21993       -0.834
        9.00428       12.58623       15.39491        0.417
        7.82238       13.29921       16.01673        0.417
       13.02156       17.86019       22.34942       -0.834
       12.52886       18.62643       22.05554        0.417
       13.44418       18.14315       23.16032        0.417
       18.25017       14.45523       26.40392       -0.834
       17.73558       13.66989       26.21772        0.417
       17.69258       15.18011       26.12128        0.417
       21.25339        5.71509       24.46402       -0.834
       20.38093        5.85396       24.09556        0.417
       21.77068        6.45268       24.14059        0.417
       25.14704       23.62562       12.03120       -0.834
       25.65421       23.36895       11.26105        0.417
       24.80403       24.49261       11.81465        0.417
       25.19143        9.95527       19.23661       -0.834
       25.67141        9.88450       18.41148        0.417
       24.35108       10.34339       18.99288        0.417
       13.20438        3.93804       18.36071       -0.834
       12.92747        3.40297       17.61690        0.417
       13.66093        3.32707       18.93908        0.417
       24.82181       19.79369        8.34163       -0.834
       24.07238       19.34734        8.73581        0.417
       25.34003       19.09130        7.94878        0.417
        4.44729       20.96261       13.97558       -0.834
        4.31698       21.86733       13.69144        0.417
        3.60412       20.70414       14.34774        0.417
       16.35125       16.57767       30.11988       -0.834
       15.50886       16.45994       29.68086        0.417
       16.36706       17.50290       30.36467        0.417
       24.48822       18.66889       18.83489       -0.834
       23.77999       18.50378       18.21249        0.417
       25.23517       18.91427       18.28891        0.417
       21.88535       25.01749       14.61346       -0.834
       22.31201       25.85316       14.80283        0.417
       22.60784       24.40689       14.46713        0.417
       22.36061        8.17895       23.46467       -0.834
       21.73301        8.86975       23.25218        0.417
       23.10026        8.33801       22.87828        0.417
       11.58201       24.38551       19.09183       -0.834
       12.52001       24.21121       19.16905        0.417
       11.19022       23.52608       18.93655        0.417
       19.98251       26.15774        7.54249       -0.834
       20.02923       25.69342        8.37822        0.417
       19.10777       25.96108        7.20725        0.417
       14.38022       27.73438       17.92678       -0.834
       14.77569       27.08776       17.34220        0.417
       14.16387       28.47245       17.35697        0.417
       17.33887        7.38414       21.46653       -0.834
       17.60560        7.16084       20.57478        0.417
       16.93115        8.24643       21.38625        0.417
       25.89394       16.12909       25.11384       -0.834
       25.90205       16.91955       25.65360        0.417
       25.59086       15.43882       25.70367        0.417
        8.12795       19.28172       24.58299       -0.834
        8.49139       20.03693       25.04538        0.417
        8.49792       18.52308       25.03446        0.417
       13.76347       22.10118       29.45561       -0.834
       13.68163       21.83257       30.37070        0.417
       12.89474       21.95101       29.08280        0.417
       23.73689        8.89277        8.25285       -0.834
       24.42952        8.86367        7.59282        0.417
       24.10418        8.43115        9.00667        0.417
       20.66732       18.69570       12.20780       -0.834
       21.00570       19.58434       12.09801        0.417
       20.91240       18.45423       13.10103        0.417
       10.33951       26.69181       19.69168       -0.834
       11.11665       27.15677       20.00168        0.417
       10.59462       25.76924       19.69488        0.417
       12.50957       19.02882       28.83961       -0.834
       11.89837       19.26401       29.53772        0.417
       11.97522       19.02066       28.04548        0.417
       19.66534        5.42031       17.39285       -0.834
       18.85881        5.01319       17.70905        0.417
       19.89887        4.91643       16.61323        0.417
       13.70292       14.02220        9.53847       -0.834
       14.21598       14.64943       10.04797        0.417
       12.79450       14.29575        9.66563        0.417
       20.81623        4.78224        8.89062       -0.834
       20.24142        4.03574        9.05961        0.417
       20.85743        4.84215        7.93618        0.417
       31.46003       19.49111       17.02953       -0.834
       31.64550       19.34774       16.10148        0.417
       30.51431       19.63441       17.06591        0.417
       14.16769       20.71916        3.18515       -0.834
       13.31326       20.30015        3.28813        0.417
       13.98039       21.53543        2.72164        0.417
       28.62172       13.41660       25.80368       -0.834
       28.46057       13.49978       24.86382        0.417
       28.54051       12.47912       25.97905        0.417
       18.34772       22.96268       16.76463       -0.834
       19.23560       23.32030       16.76877        0.417
       18.16387       22.76614       17.68322        0.417
        6.24110       11.17089       24.31613       -0.834
        5.61363       11.45840       23.65291        0.417
        7.03573       11.66993       24.12703        0.417
       29.24928       23.59512       14.16394       -0.834
       29.57221       24.49383       14.09851        0.417
       29.52719       23.30285       15.03202        0.417
       12.08081        7.22711        9.19372       -0.834
       11.41555        7.75875        8.75669        0.417
       12.35408        6.59246        8.53131        0.417
        6.04923       10.73494       20.27723       -0.834
        6.41152       11.61279       20.39700        0.417
        5.66609       10.75105       19.40020        0.417
       16.44572       21.78573       10.46568       -0.834
       16.09953       21.31733       11.22527        0.417
       15.67022       22.12681       10.02015        0.417
       14.33758        5.87026       24.60354       -0.834
       13.49456        5.47834       24.83144        0.417
       14.11291        6.72248       24.23006        0.417
        6.40875       14.13981       23.07328       -0.834
        6.50428       14.20009       24.02379        0.417
        5.46521       14.06358       22.93127        0.417
       17.88971        2.33289       12.94909       -0.834
       17.70006        1.45764       13.28703        0.417
       17.35906        2.91876       13.48891        0.417
       18.01922       27.43038       10.77064       -0.834
       17.33460       28.09802       10.72845        0.417
       17.65818       26.68570       10.28967        0.417
       21.38954       22.08192        8.59461       -0.834
       21.82682       21.99743        7.74733        0.417
       22.06245       22.43269        9.17803        0.417
        3.52056       13.31490       13.93158       -0.834
        3.08235       14.16284       14.00371        0.417
        2.89560       12.76079       13.46403        0.417
        8.21092       10.59596       17.60956       -0.834
        7.33433       10.55893       17.22688        0.417
        8.38847       11.53088       17.71266        0.417
       24.26318       26.14115       11.27328       -0.834
       23.69171       26.83017       11.61227        0.417
       24.93315       26.60877       10.77458        0.417
       20.62153       21.29889        5.02173       -0.834
       20.49037       21.07338        4.10077        0.417
       21.48897       20.95325        5.23225        0.417
        9.53757       17.67809       18.41123       -0.834
        9.84269       16.81094       18.14446        0.417
        8.59359       17.65926       18.25384        0.417
       28.66235       21.31765       19.61207       -0.834
       28.02870       21.83727       20.10675        0.417
       29.46499       21.35943       20.13193        0.417
       23.26852       15.69580        8.89238       -0.834
       22.43186       15.92892        9.29474        0.417
       23.37994       16.33107        8.18509        0.417
       27.16463       20.85356       14.65152       -0.834
       26.95912       21.28368       13.82147        0.417
       28.10100       21.00794       14.77644        0.417
       17.96531       22.24689       19.13818       -0.834
       17.23984       21.62372       19.09822        0.417
       18.73889       21.70498       19.29355        0.417
       29.06362       13.14152       18.93031       -0.834
       28.58311       13.46726       19.69138        0.417
       29.84365       12.72658       19.29855        0.417
        2.22841       13.01688       19.09670       -0.834
        2.54707       12.21831       19.51737        0.417
        2.75484       13.09551       18.30114        0.417
        8.36882       21.63840       16.84350       -0.834
        7.51292       21.21258       16.79502        0.417
        8.18624       22.56354       16.67916        0.417
       19.45440       11.82299       25.25758       -0.834
       19.45004       12.53488       24.61772        0.417
       20.18072       12.03253       25.84477        0.417
        8.05878       20.59010        7.73027       -0.834
        8.56150       20.75511        6.93260        0.417
        7.23290       20.21809        7.42081        0.417
        8.48829        7.44547       21.94532       -0.834
        9.26397        7.58052       21.40097        0.417
        8.30604        6.50841       21.87514        0.417
       26.53721       20.18357       24.38512       -0.834
       26.90890       19.55813       23.76311        0.417
       25.63595       19.88773       24.51335        0.417
       13.93293       15.86552        5.34224       -0.834
       14.03350       14.95294        5.61296        0.417
       14.53974       15.96654        4.60888        0.417
       23.08259       26.69499       22.48892       -0.834
       23.72402       27.22466       22.96246        0.417
       23.11423       27.02559       21.59118        0.417
       14.25585       13.25226        6.40959       -0.834
       13.39108       13.09573        6.03024        0.417
       14.10579       13.25776        7.35494        0.417
       12.98362       10.56393       16.34893       -0.834
       13.53542        9.80074       16.52008        0.417
       12.25525       10.22203       15.83046        0.417
       20.55594       24.90607       24.56055       -0.834
       20.38159       25.78007       24.90977        0.417
       21.48083       24.75110       24.75236        0.417
       23.53592       19.85253       22.80028       -0.834
       23.83769       20.46919       22.13327        0.417
       23.88745       19.00687       22.52188        0.417
       14.42806       28.83061        9.16932       -0.834
       14.38763       27.90565        8.92632        0.417
       13.51408       29.08611        9.29419        0.417
       14.08151        2.84833       23.82487       -0.834
       14.45028        3.44033       23.16929        0.417
       14.26749        1.97176       23.48831        0.417
       17.06825        8.54021        5.14685       -0.834
       16.19654        8.87068        4.92974        0.417
       17.40542        9.15966        5.79400        0.417
       12.83125        6.30583       20.00611       -0.834
       12.09973        5.74535       19.74731        0.417
       13.58547        5.71723       20.03660        0.417
        6.07857       15.36529       19.09827       -0.834
        6.29170       15.96963       18.38723        0.417
        5.19588       15.05635       18.89418        0.417
       13.07933       27.32389       20.16176       -0.834
       13.19517       26.37376       20.17063        0.417
       13.52454       27.61250       19.36506        0.417
        6.27982       10.36990       15.56647       -0.834
        5.89999       10.62023       14.72427        0.417
        6.35512        9.41671       15.52195        0.417
        7.79344        5.16085       15.83317       -0.834
        7.81958        5.99451       16.30282        0.417
        7.25520        5.33692       15.06147        0.417
       13.88096       11.02725       27.54673       -0.834
       13.93210       11.33125       28.45293        0.417
       14.63896       10.45192       27.44346        0.417
       10.72004       27.17774       15.93327       -0.834
       11.40786       26.81794       16.49333        0.417
       10.19593       27.72486       16.51825        0.417
       27.54608       12.40120       16.82412       -0.834
       28.11663       12.68193       17.53959        0.417
       27.11534       13.20433       16.53142        0.417
       16.74130       17.42139        7.03542       -0.834
       16.52615       17.48660        7.96584        0.417
       16.39948       18.22949        6.65284        0.417
       24.22959       22.66477       20.62569       -0.834
       24.76053       21.87311       20.71292        0.417
       23.42743       22.36949       20.19489        0.417
       20.42795        4.72974       11.88460       -0.834
       20.73771        3.99281       11.35809        0.417
       19.59754        4.98123       11.48036        0.417
        7.46565       14.94497        4.85863       -0.834
        6.61559       14.61857        4.56353        0.417
        7.28141       15.37232        5.69506        0.417
       13.74855       16.58276       28.90423       -0.834
       13.32591       17.40612       29.14855        0.417
       13.56339       16.48590       27.97012        0.417
       14.06138       26.36165       24.06780       -0.834
       14.14199       25.92917       24.91791        0.417
       14.72491       25.94126       23.52079        0.417
       13.82637       22.68160       14.24188       -0.834
       13.63037       22.14106       15.00714        0.417