%Nproc=32
%Mem=120Gb
%chk=temp.chk
#p cam-b3lyp/6-31+G(d,p) nosymm charge Freq 

Calculation for S0 with freq for abs spect

0  1
 C         17.64243       16.39785       15.69126
 C         16.07003       17.73995       16.95351
 C         15.33613       16.72005       17.40828
 C         15.70152       15.38826       17.01568
 N         16.86409       15.40707       16.14185
 H         15.88154       18.77825       17.12143
 H         14.51106       16.86087       18.13965
 O         15.09055       14.39041       17.20987
 O         18.65759       16.25297       15.02901
 N         17.20361       17.57834       16.15381
 H         17.92150       18.36133       15.99568
 H         16.96603       14.53286       15.69953
 O         19.47810       12.28520       17.99473
 H         18.71109       12.32417       17.42341
 H         19.57087       11.35690       18.20894
 O         14.12989       13.07750       14.93127
 H         14.40786       12.91900       15.83340
 H         14.90926       12.89877       14.40508
 O         16.18465       18.52752       12.91193
 H         15.27518       18.24619       12.81224
 H         16.15167       19.21491       13.57724
 O         17.51161       12.33606       16.11613
 H         17.52407       11.93875       15.24537
 H         16.87228       11.81937       16.60655
 O         18.67698       19.45722       19.03072
 H         18.61023       19.71012       18.10995
 H         19.57265       19.68681       19.27832
 O         13.25085       18.13843       15.44981
 H         13.67264       18.14644       14.59059
 H         13.65887       17.40534       15.91061
 O         16.15009       12.99707       13.11484
 H         16.40705       12.10816       13.35990
 H         15.50288       12.87682       12.41993
 O         20.44738       14.16500       15.69261
 H         20.27709       13.44612       15.08397
 H         19.89473       14.88090       15.37908
 O         17.71111       16.93627       19.71318
 H         18.38715       16.79394       20.37571
 H         17.91340       17.79628       19.34480
 O         12.31293       14.36621       16.94473
 H         13.14518       14.53888       17.38494
 H         12.32448       13.42514       16.77017
 O         21.16855       17.47900       17.13762
 H         20.76046       16.87793       17.76085
 H         21.23099       16.97653       16.32531
 O         17.86409       16.80601       11.98530
 H         17.31193       17.40692       12.48557
 H         17.67198       17.00930       11.06988
 O         19.35714       19.74009       16.37156
 H         19.45272       20.39451       15.67959
 H         20.19747       19.28200       16.38638
 O         20.43422       15.13186       18.68270
 H         19.89701       14.81188       19.40744
 H         20.34951       14.45992       18.00627
 O         15.82006       15.24746       20.93020
 H         15.56523       14.63879       20.23680
 H         16.36766       15.89737       20.48975
 O         20.64364       17.93616       13.76178
 H         20.48912       18.03047       12.82185
 H         19.90680       17.41136       14.07465
 O         14.40568       15.96084       14.15346
 H         14.56070       15.14779       14.63424
 H         14.59207       15.73941       13.24108
 O         16.29053       20.46817       14.91269
 H         16.16365       20.95411       15.72756
 H         16.40173       21.14465       14.24468
 
       25.41258       16.25374       11.63303       -0.834
       24.92900       17.03244       11.90874        0.417
       25.05892       16.04527       10.76834        0.417
       28.40633        7.22124       13.12156       -0.834
       27.53783        7.54245       13.36400        0.417
       28.31447        6.26857       13.10719        0.417
        8.44579        5.14772       11.25579       -0.834
        7.84061        5.36302       10.54612        0.417
        7.90781        4.68423       11.89764        0.417
       27.19181       19.24346       12.99635       -0.834
       27.59716       18.88932       12.20482        0.417
       26.29176       19.44097       12.73727        0.417
       19.32796       12.91989        9.17455       -0.834
       18.98068       13.17518       10.02922        0.417
       19.99958       12.26754        9.37354        0.417
        4.09016       23.37384       13.60830       -0.834
        4.90321       23.10294       14.03467        0.417
        4.27602       24.25061       13.27220        0.417
       24.40905        7.63699       23.81471       -0.834
       24.74446        7.13731       24.55906        0.417
       25.11791        7.61492       23.17186        0.417
       27.54996       24.33366       17.04861       -0.834
       27.69945       25.23440       17.33591        0.417
       26.61361       24.29628       16.85346        0.417
       20.60326       12.24048       22.06740       -0.834
       20.77252       12.43862       21.14635        0.417
       19.82697       11.68064       22.05371        0.417
       21.50412       13.66009       26.53727       -0.834
       22.36192       13.73790       26.11971        0.417
       20.90618       13.45006       25.81993        0.417
       27.01307       24.25679       20.66207       -0.834
       27.13069       25.16932       20.92607        0.417
       26.12570       24.22279       20.30480        0.417
        2.70903       20.09855       17.08865       -0.834
        3.13463       20.44436       16.30411        0.417
        2.63124       20.85345       17.67200        0.417
       14.47350       18.12148       24.62958       -0.834
       14.11961       17.30188       24.97490        0.417
       14.85131       18.55986       25.39202        0.417
       26.96766       14.80793       13.24821       -0.834
       26.46630       15.32406       12.61696        0.417
       27.87789       15.06308       13.09780        0.417
       11.57566       12.86661       13.37905       -0.834
       11.43241       13.79962       13.22027        0.417
       12.35923       12.83411       13.92787        0.417
        9.57705        8.91763       13.71734       -0.834
        9.60346        9.69864       14.27011        0.417
        9.05090        8.29033       14.21323        0.417
       25.16285       12.40370        5.34685       -0.834
       24.91652       13.32155        5.23234        0.417
       25.52537       12.14501        4.49956        0.417
       17.89813        8.86118       17.22407       -0.834
       18.38608        8.32720       17.85097        0.417
       16.98336        8.61362       17.35878        0.417
       13.42364        7.36774       25.71868       -0.834
       12.63477        7.12389       26.20289        0.417
       14.11040        6.80821       26.08135        0.417
       16.05443       24.53192       11.13059       -0.834
       16.05194       25.43031       10.80027        0.417
       15.57600       24.03178       10.46938        0.417
        6.33976        7.65648       14.44080       -0.834
        7.01268        7.41634       15.07777        0.417
        5.71716        6.92980       14.46393        0.417
       18.71433       10.44307       22.27782       -0.834
       18.33846        9.81771       21.65824        0.417
       17.97867       10.99980       22.53295        0.417
       15.90414       14.02417        8.88698       -0.834
       16.57792       13.38723        8.64916        0.417
       15.09314       13.51650        8.91488        0.417
       15.20232       10.03456       10.09943       -0.834
       15.35591       10.56636        9.31852        0.417
       14.60364       10.55792       10.63225        0.417
       13.80713       25.44674       19.79651       -0.834
       12.94815       25.08315       19.58160        0.417
       14.25156       24.74628       20.27408        0.417
       16.24161       21.07057        7.23839       -0.834
       16.56653       20.36330        7.79554        0.417
       15.32559       20.84591        7.07510        0.417
       12.88897       22.94541       16.56026       -0.834
       12.85409       23.80003       16.13055        0.417
       13.80772       22.83785       16.80636        0.417
       13.76696       15.24917       25.18000       -0.834
       14.00401       14.93838       26.05375        0.417
       12.86508       14.95321       25.05651        0.417
       27.00504       18.37449       18.82534       -0.834
       26.16691       18.33646       18.36455        0.417
       27.26199       19.29546       18.78048        0.417
       22.68450       12.53896       20.18630       -0.834
       22.78721       11.71815       20.66791        0.417
       22.48775       12.26804       19.28957        0.417
       26.48821       11.23219       16.67565       -0.834
       27.20063       10.96780       16.09360        0.417
       26.85561       11.94727       17.19518        0.417
       12.20750       26.71794       24.03104       -0.834
       11.79137       26.09543       23.43476        0.417
       13.06402       26.33424       24.21913        0.417
       11.73141       20.68666       20.62719       -0.834
       11.77431       20.23001       19.78703        0.417
       11.97045       21.59044       20.42158        0.417
       22.82337       28.23098       10.51664       -0.834
       22.02390       27.87639       10.90566        0.417
       23.25955       27.47156       10.13031        0.417
       10.56475       21.27598       27.36753       -0.834
       11.31030       20.88591       26.91122        0.417
        9.89781       20.58938       27.36819        0.417
       28.23956       10.44312       14.61075       -0.834
       28.19576       11.12625       13.94169        0.417
       27.54219        9.83128       14.37504        0.417
       16.69567       15.93075       31.11209       -0.834
       16.25409       16.16821       31.92747        0.417
       16.18063       16.35727       30.42722        0.417
        3.52256       15.79906       10.41880       -0.834
        4.08233       15.02900       10.31932        0.417
        2.76203       15.61578        9.86722        0.417
        6.52697       15.31776       13.60562       -0.834
        5.58253       15.16223       13.61461        0.417
        6.61459       16.25161       13.41460        0.417
       18.13783       27.92085       19.73944       -0.834
       17.82017       27.28561       19.09772        0.417
       18.73471       28.48297       19.24549        0.417
       12.95706       27.93063        6.83921       -0.834
       12.36241       27.48297        7.44107        0.417
       13.17074       27.27173        6.17858        0.417
       16.91354       12.58354       22.28421       -0.834
       16.70184       12.94015       23.14691        0.417
       16.16554       12.82107       21.73620        0.417
       23.13997       18.83497       18.36850       -0.834
       22.29380       18.66804       17.95334        0.417
       23.63666       18.02786       18.23400        0.417
        9.00464       15.14248       28.79782       -0.834
        9.76130       15.69134       28.59180        0.417
        8.86520       14.61978       28.00815        0.417
       27.16058       13.77329        6.71127       -0.834
       26.70957       13.04023        6.29241        0.417
       27.02409       14.51058        6.11629        0.417
        5.10367       10.30826       14.13940       -0.834
        5.33908        9.42552       13.85377        0.417
        4.15172       10.34480       14.04617        0.417
       20.53283       19.26863       11.22755       -0.834
       21.24412       18.71211       10.91041        0.417
       20.08742       19.56454       10.43365        0.417
        4.50062       18.71007       19.58161       -0.834
        3.72781       18.38797       19.11765        0.417
        5.23618       18.47032       19.01795        0.417
       10.62812       26.35092       16.94301       -0.834
       10.71344       27.13888       17.47974        0.417
       11.49361       26.23216       16.55179        0.417
       15.28778       27.73750       23.45923       -0.834
       16.11777       27.97571       23.04619        0.417
       14.67905       27.62755       22.72876        0.417
        7.38573        6.18528       23.54230       -0.834
        6.79979        6.93430       23.43336        0.417
        7.92507        6.18549       22.75152        0.417
       12.64258       29.65606       23.67621       -0.834
       11.74744       29.94435       23.49780        0.417
       12.56889       28.71051       23.80560        0.417
        6.10093       22.35334       17.76467       -0.834
        6.85654       22.75319       18.19525        0.417
        5.64052       21.89316       18.46645        0.417
       18.24134       27.38634        9.60700       -0.834
       17.41426       27.66857        9.99754        0.417
       18.33017       27.92281        8.81925        0.417
       11.07384        8.72000        8.81239       -0.834
       10.16079        8.46711        8.94884        0.417
       11.36554        9.03647        9.66737        0.417
       14.35620       11.98140        6.26644       -0.834
       14.87779       11.89671        5.46831        0.417
       13.69209       12.63613        6.05078        0.417
       28.08524       21.07766       18.67257       -0.834
       27.16891       21.15977       18.40831        0.417
       28.52732       20.72625       17.89971        0.417
       18.44854       14.13993       11.74622       -0.834
       17.53155       13.86628       11.76797        0.417
       18.42383       15.07741       11.93793        0.417
       10.09117       16.99009       19.50679       -0.834
       10.48173       17.78972       19.15424        0.417
        9.85028       16.47964       18.73372        0.417
       19.41395       24.75403        7.11560       -0.834
       19.40130       23.81146        7.28184        0.417
       20.26250       25.04522        7.44936        0.417
        9.24118       17.32107       14.31052       -0.834
        8.77395       17.14068       15.12623        0.417
       10.10233       16.92176       14.43385        0.417
       19.73742       22.64920       19.89445       -0.834
       19.63167       22.54298       20.83984        0.417
       20.58104       22.24091       19.69995        0.417
        8.08197       14.22719       15.64900       -0.834
        7.20676       13.84116       15.61403        0.417
        8.00169       15.04823       15.16353        0.417
       16.20735       29.27844       14.71926       -0.834
       16.32067       28.39108       14.37871        0.417
       15.58704       29.18084       15.44171        0.417
       18.53255       22.06503        3.78930       -0.834
       18.64311       21.92524        2.84884        0.417
       17.62028       21.83157        3.96102        0.417
       13.84691       10.49737       26.25690       -0.834
       13.92795        9.57940       25.99808        0.417
       14.41449       10.58171       27.02304        0.417
       20.48435       29.02504       18.83986       -0.834
       21.24524       29.59618       18.73468        0.417
       20.41470       28.56189       18.00506        0.417
       22.42286       21.41896       25.44102       -0.834
       22.11195       20.53997       25.65766        0.417
       21.63262       21.95910       25.43812        0.417
       11.43070       26.42133        8.53251       -0.834
       11.51768       26.47322        9.48434        0.417
       11.80293       25.56971        8.30358        0.417
        6.44120       22.79004       15.27233       -0.834
        6.66997       21.88467       15.06207        0.417
        6.23434       22.77449       16.20678        0.417
       22.29752       14.99466       12.69813       -0.834
       22.75007       15.55933       13.32470        0.417
       22.99462       14.64494       12.14317        0.417
       21.11036       19.86089        2.93610       -0.834
       20.98376       19.09265        3.49288        0.417
       20.62649       19.65920        2.13521        0.417
       15.66959       24.37674       26.26559       -0.834
       15.29920       25.20920       25.97228        0.417
       14.91251       23.80009       26.36820        0.417
        8.90892        9.74379       24.59743       -0.834
        7.95863        9.63613       24.63719        0.417
        9.11776       10.30882       25.34131        0.417
       26.12036        8.68567       13.84395       -0.834
       25.23703        8.78332       13.48839        0.417
       25.98582        8.37026       14.73762        0.417
       27.74936       18.29767        7.81420       -0.834
       27.23429       17.87055        7.12972        0.417
       28.64844       18.27655        7.48643        0.417
       15.89100        1.29873       16.86335       -0.834
       15.88802        1.66822       15.98034        0.417
       16.18752        0.39636       16.74490        0.417
       21.84866       25.19433        8.82657       -0.834
       22.38131       24.46924        9.15330        0.417
       22.41119       25.63850        8.19214        0.417
       21.00235       19.46036       20.39810       -0.834
       21.38968       18.61442       20.17318        0.417
       20.67486       19.34481       21.29007        0.417
       13.57452       28.49192       15.39608       -0.834
       13.00385       28.25266       16.12637        0.417
       13.02938       29.04543       14.83689        0.417
       11.32815       23.86376       18.79174       -0.834
       11.63919       23.57813       17.93273        0.417
       10.56896       23.30837       18.96893        0.417
        4.42773       18.40983       10.43912       -0.834
        4.11392       17.54336       10.69791        0.417
        3.65531       18.84800       10.08189        0.417
       10.73831       18.29962       24.25457       -0.834
       10.82424       17.60874       23.59766        0.417
       11.40921       18.94017       24.01834        0.417
       13.37744        4.08941       11.63619       -0.834
       12.55927        3.68321       11.35013        0.417
       13.19202        5.02848       11.63607        0.417
       13.86735       21.01487        5.25492       -0.834
       14.41908       21.77210        5.45091        0.417
       13.64805       20.64946        6.11201        0.417
       22.38464       12.25602       17.34377       -0.834
       21.68063       12.88558       17.49952        0.417
       21.94199       11.40888       17.29230        0.417
       10.13539        3.70793       20.58106       -0.834
        9.49070        4.25250       20.12933        0.417
        9.62795        3.22881       21.23618        0.417
        5.05168       11.14986       24.30917       -0.834
        5.12643       11.38672       25.23358        0.417
        4.48533       11.82405       23.93372        0.417
       10.12618        8.46666        6.08357       -0.834
        9.69879        7.61327        6.15627        0.417
       10.42476        8.66197        6.97180        0.417
       20.17850        4.08299       24.38058       -0.834
       20.59351        3.33202       23.95626        0.417
       20.88260        4.72447       24.47528        0.417
       11.52009       24.04571        4.60412       -0.834
       11.56858       23.84233        3.67003        0.417
       10.59140       23.96150        4.82017        0.417
       14.44190       17.36456        9.26229       -0.834
       13.82827       16.64658        9.10679        0.417
       15.11845       17.25086        8.59477        0.417
       16.02860       21.71695       25.33815       -0.834
       16.31124       22.52007       25.77558        0.417
       15.98260       21.06580       26.03824        0.417
       25.85820        5.06576       13.75629       -0.834
       25.82600        4.48944       14.51987        0.417
       25.12138        5.66482       13.87653        0.417
       17.16498        6.78838        6.23855       -0.834
       16.41987        6.96908        6.81160        0.417
       16.98734        7.29593        5.44667        0.417
       25.97451       17.79204       27.50642       -0.834
       25.55699       18.57744       27.86004        0.417
       26.66040       17.57923       28.13927        0.417
       13.56512       13.96250        3.17899       -0.834
       12.85459       14.15293        2.56652        0.417
       13.51504       14.66261        3.82982        0.417
       12.99541       23.11494        9.83706       -0.834
       12.39451       23.46150        9.17748        0.417
       13.86137       23.19092        9.43633        0.417
        8.77744        5.93554       14.36420       -0.834
        8.61785        4.99824       14.47477        0.417
        8.49082        6.12401       13.47058        0.417
       21.51876       19.81869       30.30460       -0.834
       22.10757       20.32948       30.86014        0.417
       20.82868       20.43399       30.05677        0.417
        7.35502       17.14715       27.31529       -0.834
        7.00082       17.12109       26.42642        0.417
        7.78695       16.30020       27.42644        0.417
       11.91174       11.95811        9.22634       -0.834
       11.80401       12.16752        8.29856        0.417
       11.11625       11.47885        9.45814        0.417
       20.25765       12.89337       13.25420       -0.834
       19.43968       13.19355       12.85790        0.417
       20.86319       13.62563       13.13868        0.417
       10.19523       21.39206       16.85078       -0.834
        9.40018       21.91647       16.75533        0.417
       10.70755       21.58795       16.06631        0.417
       15.31539       11.16771        3.56111       -0.834
       14.72370       11.61155        2.95355        0.417
       14.91563       10.30939        3.70150        0.417
        4.51683       12.74659       19.38183       -0.834
        4.09123       12.72837       18.52464        0.417
        5.26601       12.15787       19.29035        0.417
       18.99765        7.31634       19.48414       -0.834
       19.62169        6.66094       19.79600        0.417
       19.27748        8.13147       19.90064        0.417
       18.74858       14.19945        6.94343       -0.834
       18.84920       13.71076        7.76030        0.417
       18.25145       13.61335        6.37283        0.417
       20.23629        9.24804       15.64562       -0.834
       19.37178        9.13683       16.04120        0.417
       20.79730        9.52685       16.36934        0.417
       23.94976        5.57705       17.14621       -0.834
       23.60770        5.99994       16.35856        0.417
       24.89195        5.50849       16.99188        0.417
        9.83270       14.71760        5.83094       -0.834
        9.03287       15.12763        5.50173        0.417
       10.26509       14.37334        5.04943        0.417
        7.97346       13.84280       11.87549       -0.834
        7.63109       12.96967       12.06695        0.417
        7.55090       14.41252       12.51822        0.417
       23.36369       12.53420       28.39832       -0.834
       23.73560       13.20442       28.97166        0.417
       23.01408       13.02288       27.65320        0.417
       24.63050       13.01684       15.69017       -0.834
       23.78700       12.73650       16.04534        0.417
       25.22120       12.28510       15.86866        0.417
       27.25947       16.33251       22.48956       -0.834
       26.55465       15.75556       22.78383        0.417
       26.94614       17.21485       22.68838        0.417
        7.10724       11.67170       12.97451       -0.834
        6.45684       11.04561       13.29266        0.417
        7.84084       11.58592       13.58337        0.417
       19.76879       17.20040       23.65607       -0.834
       19.94851       16.27382       23.49675        0.417
       18.83365       17.23224       23.85787        0.417
       13.21128        7.87737       22.94013       -0.834
       13.72411        8.68420       22.98771        0.417
       12.93614        7.71434       23.84232        0.417
       29.46343       18.96247       14.58104       -0.834
       29.45703       19.34640       15.45785        0.417
       28.59584       19.15803       14.22709        0.417
       21.66584       30.33245       14.54943       -0.834
       22.45613       30.72923       14.18305        0.417
       21.20211       29.97705       13.79122        0.417
       20.73527       23.65289        4.11437       -0.834
       19.94004       23.14103        3.96657        0.417
       20.43612       24.56201        4.12964        0.417
       25.43487       26.20266        9.97068       -0.834
       25.53559       26.48269        9.06091        0.417
       25.85450       26.89418       10.48248        0.417
       16.28194       20.78922       20.28266       -0.834
       16.88896       20.48610       19.60747        0.417
       16.23195       20.06286       20.90404        0.417
       18.68002       23.53385        9.81491       -0.834
       18.86964       24.41084        9.48150        0.417
       17.80390       23.60538       10.19378        0.417
       27.84625        8.86451       17.96644       -0.834
       27.95797        8.40190       18.79695        0.417
       27.71000        9.77820       18.21711        0.417
       18.74792       27.60957       26.37782       -0.834
       18.27759       28.12831       27.03045        0.417
       18.99156       28.24018       25.70018        0.417
       25.52120       20.48206       26.66126       -0.834
       25.74969       19.70795       26.14669        0.417
       24.59585       20.63356       26.46888        0.417
       11.58276        9.12795       16.32252       -0.834
       12.01195        8.54992       16.95333        0.417
       10.66023        8.87460       16.35387        0.417
       16.79876       11.61466        7.84662       -0.834
       17.74577       11.50133        7.76561        0.417
       16.48731       11.68415        6.94418        0.417
       23.29520       20.51014        4.89786       -0.834
       23.33509       21.46590        4.86391        0.417
       22.59930       20.27700        4.28336        0.417
       29.32132       19.18927       20.58764       -0.834
       28.92101       19.89143       20.07486        0.417
       30.25180       19.23153       20.36709        0.417
       24.19353       24.67203       25.54396       -0.834
       23.51515       25.32604       25.37569        0.417
       23.90431       23.89692       25.06252        0.417
       25.07533       16.04817        8.71556       -0.834
       25.15181       16.99369        8.58758        0.417
       25.97929       15.74198        8.78852        0.417
        7.87719       13.82904       26.70037       -0.834
        7.38885       13.01954       26.85027        0.417
        8.13513       13.78669       25.77956        0.417
        8.56049       19.26685        8.65430       -0.834
        8.19169       20.14047        8.78472        0.417
        8.92414       19.03006        9.50748        0.417
       13.59206       29.80236       19.28227       -0.834
       13.74794       30.72073       19.50254        0.417
       13.34478       29.39508       20.11246        0.417
       12.83562       20.19860       25.98560       -0.834
       12.95098       19.61710       25.23408        0.417
       13.67230       20.16070       26.44903        0.417
       20.47282       26.75412       10.68217       -0.834
       19.58285       26.86503       10.34768        0.417
       20.90285       26.19145       10.03819        0.417
       13.49166        9.43773        6.99337       -0.834
       12.70106        9.36619        7.52822        0.417
       13.57570       10.37409        6.81336        0.417
        3.06897       16.35227       22.89482       -0.834
        3.07899       16.63253       23.81001        0.417
        3.81996       16.79533       22.49992        0.417
       11.12970       17.21583       27.02267       -0.834
       11.03769       16.28115       26.83791        0.417
       10.95264       17.64454       26.18535        0.417
       24.04680       23.62904        9.76445       -0.834
       24.63784       22.88975        9.90714        0.417
       24.61006       24.40092        9.82074        0.417
       21.22120       11.63107       10.55051       -0.834
       21.90173       12.29118       10.68228        0.417
       20.82433       11.51977       11.41441        0.417
        7.21870       16.77681        7.66014       -0.834
        6.95750       17.57111        8.12607        0.417
        7.93293       16.41483        8.18462        0.417
       19.73591       20.98357        9.32200       -0.834
       19.27757       21.62270        9.86759        0.417
       19.48267       21.20708        8.42638        0.417
       16.00304        6.40732       23.57406       -0.834
       16.37911        7.09212       23.02101        0.417
       15.07114        6.62098       23.62030        0.417
       23.50893       27.92607       16.96092       -0.834
       23.33094       27.12921       16.46136        0.417
       24.22617       28.34973       16.48943        0.417
       17.71759        6.97884       25.86685       -0.834
       17.04853        6.81319       25.20265        0.417
       17.22275        7.19275       26.65781        0.417
       17.20473       19.45118        9.04454       -0.834
       17.34745       19.65222        9.96944        0.417
       17.40953       18.51935        8.96712        0.417
        4.66146        8.19609       10.14186       -0.834
        5.17146        8.91875       10.50779        0.417
        3.86262        8.60843        9.81314        0.417