%Nproc=32
%Mem=120Gb
%chk=temp.chk
#p cam-b3lyp/6-31+G(d,p) nosymm charge Freq 

Calculation for S0 with freq for abs spect

0  1
 C         17.33652       17.76587       16.75852
 C         16.80799       15.89306       15.45291
 C         16.05905       15.40723       16.42890
 C         15.83293       16.08266       17.67456
 N         16.55520       17.23184       17.71638
 H         17.01900       15.40617       14.54714
 H         15.58865       14.41349       16.38717
 O         15.05205       15.73233       18.56852
 O         18.06361       18.70217       17.04188
 N         17.39265       17.05479       15.58167
 H         17.95171       17.55272       14.83366
 H         16.39597       17.87091       18.51466
 O         16.00443       18.46712       20.30676
 H         15.19325       17.97486       20.43286
 H         15.76432       19.37584       20.48794
 O         16.73177       21.30945       16.13145
 H         17.09978       20.74795       16.81374
 H         16.20853       21.95422       16.60761
 O         14.04685       12.21579       17.41286
 H         14.41357       12.37332       16.54284
 H         13.75077       11.30589       17.38735
 O         15.04788       19.24085       12.45123
 H         14.33534       19.71383       12.02135
 H         14.68973       18.98937       13.30254
 O         13.75336       18.59686       17.81551
 H         13.00364       18.90609       17.30705
 H         13.74839       19.13902       18.60435
 O         14.41379       13.54603       13.94132
 H         14.73011       14.08946       13.21961
 H         13.94400       14.15438       14.51179
 O         14.61454       18.60835       15.21840
 H         14.46274       18.68961       16.15999
 H         15.46572       18.17603       15.14897
 O         18.80894       18.41013       21.22136
 H         17.95799       18.69966       20.89221
 H         18.60041       17.72134       21.85248
 O         12.67609       14.66476       19.54406
 H         13.43761       14.74812       18.97015
 H         11.93482       14.92890       18.99911
 O         17.31460       12.20002       19.49580
 H         17.52275       12.64708       18.67541
 H         17.20190       11.28255       19.24725
 O         11.70052       16.46642       17.51154
 H         10.90985       16.99266       17.39265
 H         12.33329       17.06895       17.90244
 O         20.66299       18.21575       17.14639
 H         21.04867       18.30251       18.01815
 H         19.82616       18.67644       17.20726
 O         15.39450       14.84447       11.92539
 H         16.05592       14.28921       11.51254
 H         15.72554       15.73562       11.81360
 O         17.09436       17.22079       12.08740
 H         17.97952       17.37502       12.41745
 H         16.63514       18.04726       12.23679
 O         19.71428       14.20320       16.49809
 H         19.16576       13.83652       15.80462
 H         20.07814       13.43921       16.94549
 O         17.43114       19.71642       13.87858
 H         17.70851       20.10364       14.70885
 H         16.52594       20.00751       13.76855
 O         13.97386       16.79486       20.98109
 H         13.72916       16.10694       20.36211
 H         14.52439       16.35193       21.62682
 O         19.71408       17.40386       13.33937
 H         20.12489       18.26515       13.26425
 H         20.25280       16.93583       13.97731
 O         12.04342       18.33938       14.27497
 H         12.10147       18.96226       14.99946
 H         12.77556       17.73898       14.41544
 O         21.05766       16.27719       15.34382
 H         20.68697       15.48373       15.73012
 H         20.88691       16.96153       15.99093
 
       20.01731        4.38186       19.43135       -0.834
       19.29873        5.00777       19.34131        0.417
       20.77335        4.82793       19.04972        0.417
       20.76685       14.86744        4.00673       -0.834
       20.65876       13.96841        3.69644        0.417
       21.52834       15.19629        3.52900        0.417
       29.02396       17.76760       11.80212       -0.834
       28.09158       17.72564       12.01461        0.417
       29.35981       18.48700       12.33681        0.417
        7.32111       12.28179       24.03470       -0.834
        7.62640       13.10645       23.65661        0.417
        7.65663       11.60794       23.44344        0.417
       28.58701       16.10478       25.28096       -0.834
       28.09525       16.63370       24.65276        0.417
       29.49673       16.37927       25.16559        0.417
       22.37235        2.85996       15.75136       -0.834
       23.20456        2.56537       15.38137        0.417
       22.44735        3.81374       15.78150        0.417
       22.65693       24.88875       16.22582       -0.834
       23.10465       25.62187       15.80356        0.417
       21.85505       24.77170       15.71638        0.417
       30.22880       14.81895       17.20975       -0.834
       29.62236       14.25284       16.73228        0.417
       31.09775       14.51695       16.94526        0.417
       25.57731       26.43713       10.04299       -0.834
       25.21173       25.58991        9.78844        0.417
       25.94501       26.28790       10.91405        0.417
        6.66180        7.37805       17.30475       -0.834
        5.95589        6.77042       17.08403        0.417
        6.21590        8.13905       17.67660        0.417
       13.24612       29.19777       10.86403       -0.834
       13.60721       29.05351        9.98937        0.417
       14.01372       29.29928       11.42681        0.417
       16.34688       30.14040       15.61649       -0.834
       16.53204       30.39156       14.71158        0.417
       17.20949       30.04227       16.01962        0.417
        8.70247       19.40279        5.83170       -0.834
        9.40385       18.76261        5.71143        0.417
        7.94679       18.88245        6.10452        0.417
       24.14331       18.02003       20.79343       -0.834
       24.55723       18.79805       21.16704        0.417
       23.26301       18.30873       20.55267        0.417
       13.55434       15.42653        2.79364       -0.834
       14.25098       15.78712        3.34219        0.417
       12.92256       16.14048        2.70789        0.417
       29.52455       23.93488       21.07339       -0.834
       29.22646       23.55789       21.90119        0.417
       29.30333       23.27536       20.41587        0.417
       30.91654       15.48010       12.80000       -0.834
       30.87897       16.42403       12.64567        0.417
       30.00016       15.20998       12.85936        0.417
       11.01218       17.93210        5.72311       -0.834
       11.03952       17.55576        4.84342        0.417
       11.67695       18.62068        5.71033        0.417
       26.08125       15.34307       12.34070       -0.834
       25.59451       14.72807       12.88941        0.417
       25.41262       15.76292       11.79951        0.417
       17.03613        9.88676       29.51409       -0.834
       16.38703        9.57090       28.88551        0.417
       17.63169        9.14740       29.63608        0.417
       18.09905       24.87115       10.13859       -0.834
       17.85954       24.51043       10.99227        0.417
       17.58797       25.67731       10.06678        0.417
       21.42019       25.27656       13.44678       -0.834
       22.37517       25.22310       13.40958        0.417
       21.11998       24.41779       13.14909        0.417
       10.65212       10.06999        4.73290       -0.834
       11.16414       10.22388        3.93893        0.417
       10.51441        9.12290        4.74985        0.417
        5.30167       12.36825        8.24050       -0.834
        4.88162       13.13688        7.85451        0.417
        5.90236       12.72597        8.89429        0.417
        2.84131       14.36968       16.16718       -0.834
        3.17770       14.78328       16.96217        0.417
        1.90186       14.27557       16.32470        0.417
       17.11079        6.22625        5.22407       -0.834
       17.35253        7.06538        5.61606        0.417
       16.53441        5.81702        5.86949        0.417
        6.48409       21.27487       14.65087       -0.834
        6.06533       20.73305       15.31968        0.417
        6.96837       20.65347       14.10720        0.417
        7.79301       12.53959       19.71677       -0.834
        7.10341       12.25925       19.11504        0.417
        8.01451       13.42609       19.43167        0.417
        6.86477       21.35312       19.96338       -0.834
        6.48410       20.47693       20.02342        0.417
        6.81931       21.57125       19.03248        0.417
        5.91809       23.85284       15.53097       -0.834
        5.83086       22.91610       15.70743        0.417
        5.03147       24.19946       15.63095        0.417
       23.93538       19.55828        6.58350       -0.834
       23.37073       19.03392        6.01564        0.417
       23.33052       20.01226        7.17025        0.417
       11.10460       24.50844       21.84963       -0.834
       10.93019       25.31417       22.33606        0.417
       11.12959       24.78228       20.93277        0.417
       19.50142       10.47824        5.99940       -0.834
       19.34887       11.40260        5.80313        0.417
       20.33984       10.46612        6.46107        0.417
       10.40711        5.07354       14.89751       -0.834
        9.67897        4.50658       15.15167        0.417
       10.05726        5.96142       14.97197        0.417
       20.13506       22.78769       13.01283       -0.834
       19.36841       22.76370       12.44020        0.417
       19.79016       22.59171       13.88396        0.417
       18.13332       13.08865        4.21173       -0.834
       17.22566       13.08178        4.51567        0.417
       18.64416       13.32250        4.98671        0.417
       23.73558        7.04183       20.13129       -0.834
       24.39949        7.46827       19.58944        0.417
       23.79113        7.48944       20.97556        0.417
       23.12766       20.87118       23.56357       -0.834
       23.84431       20.52930       23.02900        0.417
       22.84186       21.66121       23.10487        0.417
        9.48704       10.55702       11.84229       -0.834
       10.19481       10.01475       12.19047        0.417
        9.76621       10.77387       10.95276        0.417
       22.43348       20.63098       13.96575       -0.834
       21.70054       20.95345       13.44131        0.417
       22.28005       20.99072       14.83941        0.417
        5.17986       22.95663       10.03347       -0.834
        5.21231       23.19120       10.96092        0.417
        5.22190       22.00038       10.02617        0.417
       18.39004       11.76291       14.88185       -0.834
       17.51142       11.46982       14.64018        0.417
       18.70992       12.22610       14.10767        0.417
        9.99301        8.88824       18.83481       -0.834
        9.90682        9.82347       18.64999        0.417
       10.47736        8.85024       19.65954        0.417
       11.11623        9.58839       15.34476       -0.834
       11.37426        8.80408       14.86050        0.417
       10.39072        9.30050       15.89883        0.417
       26.18035       14.37718       21.79510       -0.834
       26.13281       13.48614       22.14154        0.417
       27.09342       14.63531       21.92124        0.417
       14.54862       14.02367       26.86649       -0.834
       14.32536       14.59062       27.60470        0.417
       14.16616       13.17544       27.09109        0.417
       15.28165        8.88205       19.59993       -0.834
       14.64881        9.55552       19.35059        0.417
       15.36960        8.33470       18.81961        0.417
        2.85790       21.26094       16.52225       -0.834
        2.59535       21.62730       15.67781        0.417
        2.03336       21.03358       16.95199        0.417
       13.50195       10.22083        9.14081       -0.834
       14.05425       10.04187        9.90184        0.417
       13.81525        9.61507        8.46915        0.417
        9.41390        6.69509       17.08317       -0.834
        8.46773        6.78601       17.19602        0.417
        9.79111        7.29306       17.72844        0.417
        3.64994       20.56362       23.88202       -0.834
        4.50862       20.98379       23.93072        0.417
        3.09654       21.20029       23.42965        0.417
       24.41325       28.75567       12.81001       -0.834
       24.93852       29.25659       12.18600        0.417
       23.72821       28.35178       12.27727        0.417
       19.45321        8.06509       20.91924       -0.834
       18.91689        8.75730       21.30582        0.417
       18.83463        7.35948       20.73029        0.417
       13.91467       29.21184       23.38437       -0.834
       13.31316       29.84169       22.98725        0.417
       14.78450       29.58010       23.22938        0.417
       19.13936       28.40398        9.51145       -0.834
       19.84294       28.48931        8.86808        0.417
       19.51710       28.73651       10.32568        0.417
        7.79262        7.79577       13.53520       -0.834
        7.69865        8.28348       14.35346        0.417
        6.97368        7.95457       13.06577        0.417
        7.87166       19.36696       13.14496       -0.834
        8.38751       20.12714       12.87614        0.417
        8.39357       18.61327       12.86967        0.417
       22.09834       30.04337       10.95170       -0.834
       21.71940       29.37480       11.52235        0.417
       21.34283       30.50861       10.59254        0.417
       24.62148       12.67563       26.11615       -0.834
       24.46903       13.52771       25.70755        0.417
       24.03667       12.66476       26.87385        0.417
       13.10101       22.90830        9.48316       -0.834
       13.90709       23.21077        9.06484        0.417
       12.77209       23.67483        9.95271        0.417
       23.69527       13.90637       10.13744       -0.834
       24.09758       13.08899        9.84374        0.417
       23.84146       14.51851        9.41623        0.417
       20.93294       11.01665       27.33618       -0.834
       20.56615       10.31777       26.79464        0.417
       20.17272       11.52419       27.62027        0.417
       10.14173       14.86032        6.10553       -0.834
       10.81070       15.34263        6.59142        0.417
       10.50757       13.98200        6.00091        0.417
       31.65188       17.76688       19.51819       -0.834
       32.34981       17.23834       19.13118        0.417
       30.98149       17.13179       19.77013        0.417
       19.22924       13.09174       12.87631       -0.834
       19.98533       13.63825       12.66210        0.417
       18.80272       12.93152       12.03450        0.417
        9.15784       18.41713       24.03925       -0.834
        9.41614       17.52373       24.26585        0.417
        8.84183       18.79147       24.86159        0.417
       20.78386        4.32370       24.47459       -0.834
       20.53323        3.75459       25.20227        0.417
       19.97905        4.78824       24.24502        0.417
       19.96189       18.80371        3.71313       -0.834
       19.64309       19.38734        4.40158        0.417
       20.71980       18.36640        4.10116        0.417
        4.96072       24.54516       20.52588       -0.834
        5.55434       23.84752       20.80361        0.417
        5.06335       25.22634       21.19049        0.417
       27.88873       17.20936       20.79621       -0.834
       27.16254       16.84424       20.29067        0.417
       28.49291       16.47607       20.91234        0.417
        7.17310       13.58153       15.44801       -0.834
        8.05053       13.28413       15.20739        0.417
        7.05121       14.39302       14.95519        0.417
       14.62462       30.52532       17.70757       -0.834
       15.12615       30.95286       18.40176        0.417
       15.27788       30.29356       17.04744        0.417
       18.38252       25.96927       28.01346       -0.834
       17.70285       25.37109       27.70281        0.417
       19.12450       25.40177       28.22236        0.417
       12.54594       21.34524       26.79881       -0.834
       11.61787       21.47065       26.99678        0.417
       12.63661       20.40239       26.66080        0.417
       29.13789       12.94707       10.25335       -0.834
       28.73348       12.91703        9.38629        0.417
       30.00344       13.32651       10.10143        0.417
       23.62446       28.14167       22.19206       -0.834
       23.77229       28.88455       22.77730        0.417
       24.44393       28.05273       21.70545        0.417
       16.85393        6.38045       15.43198       -0.834
       16.45326        6.85288       14.70225        0.417
       17.61189        5.94118       15.04625        0.417
       11.66398       17.25302       22.19140       -0.834
       11.58065       18.09310       22.64258        0.417
       12.50872       17.30360       21.74408        0.417
       21.74508       11.14204       21.54204       -0.834
       21.01890       11.45491       22.08149        0.417
       22.52821       11.34002       22.05560        0.417
       14.52933       24.88699        7.00818       -0.834
       14.80989       25.59895        6.43317        0.417
       14.23403       24.19901        6.41176        0.417
       24.22215       22.47897        5.09082       -0.834
       23.98611       22.04349        5.90989        0.417
       25.17546       22.55736        5.12677        0.417
       15.38178        6.90659       17.76397       -0.834
       14.50311        6.56637       17.59539        0.417
       15.87245        6.70996       16.96596        0.417
       20.50066       23.09177       28.43285       -0.834
       20.68637       22.19728       28.71857        0.417
       20.82788       23.12945       27.53411        0.417
       26.64338       14.22560       17.93102       -0.834
       26.29894       14.05377       17.05463        0.417
       26.25689       15.06502       18.18046        0.417
       26.15233       25.75873       15.27851       -0.834
       26.31938       25.93768       14.35315        0.417
       25.83313       26.58993       15.62987        0.417
        9.88584       12.51243       15.25887       -0.834
       10.10503       11.58353       15.18579        0.417
       10.48393       12.84833       15.92647        0.417
       22.98317       13.58023       17.43890       -0.834
       22.23370       13.02399       17.65133        0.417
       22.74255       14.44469       17.77215        0.417
       13.99905        6.72686       26.68842       -0.834
       13.76806        6.33922       25.84425        0.417
       14.92731        6.52198       26.80062        0.417
       26.49937       10.65720       27.05085       -0.834
       26.76959       11.32948       27.67635        0.417
       25.82331       11.07996       26.52128        0.417
       25.25362       20.10734       22.16411       -0.834
       25.04979       20.65782       21.40803        0.417
       26.20149       19.98131       22.12065        0.417
       21.76583       22.90437        7.46003       -0.834
       20.94107       23.33897        7.67710        0.417
       21.95482       22.35463        8.22049        0.417
        6.68559       19.15693       22.69013       -0.834
        7.46682       18.92578       22.18765        0.417
        6.65960       20.11350       22.66685        0.417
        6.88652       12.99564       10.24832       -0.834
        6.34275       12.34342       10.69007        0.417
        7.43655       13.35925       10.94222        0.417
       19.23664        9.89606        3.41574       -0.834
       19.63349       10.60915        2.91549        0.417
       19.32008       10.16854        4.32953        0.417
       18.00958       23.82311       22.28048       -0.834
       17.66652       24.70841       22.40204        0.417
       18.46054       23.62565       23.10140        0.417
       27.01145       21.56585       19.83314       -0.834
       27.37422       22.31224       19.35615        0.417
       27.56736       20.82792       19.58282        0.417
       28.85253       24.95743       15.13865       -0.834
       28.05790       25.39140       15.44925        0.417
       28.70031       24.81838       14.20392        0.417
       12.50055       27.51122       12.80467       -0.834
       13.14079       27.69120       13.49310        0.417
       12.76291       28.07754       12.07894        0.417
        5.48953        9.68867       18.09572       -0.834
        5.34575       10.49167       17.59498        0.417
        4.91540        9.77440       18.85681        0.417
       16.83210       13.81037        7.83141       -0.834
       16.72421       14.69946        7.49360        0.417
       17.75189       13.60160        7.66821        0.417
       14.12459       20.41182        7.51922       -0.834
       13.18781       20.55022        7.65896        0.417
       14.31063       20.84982        6.68870        0.417
        5.85253       27.74952       17.87861       -0.834
        6.06893       26.95590       17.38914        0.417
        5.63020       27.43736       18.75574        0.417
       18.69431       16.29339       23.00545       -0.834
       18.98879       16.03874       23.87990        0.417
       19.10552       15.65813       22.41929        0.417
        4.42522       12.50137       22.69843       -0.834
        5.19710       12.04638       23.03520        0.417
        4.04611       11.89333       22.06376        0.417
       14.24751       12.39270        2.55733       -0.834
       14.64219       12.90292        1.85011        0.417
       13.87543       13.04815        3.14739        0.417
       10.88449       11.72292       22.99343       -0.834
       11.26041       12.33125       23.62971        0.417
       11.37633       10.91123       23.11786        0.417
       19.86137       19.91409       12.19496       -0.834
       19.06579       20.11863       12.68632        0.417
       19.76559       20.39428       11.37248        0.417
       23.12611        6.72903       23.42964       -0.834
       23.21652        6.87303       24.37162        0.417
       23.62264        7.44263       23.02904        0.417
       23.30112       25.47737        6.69147       -0.834
       24.08706       25.35917        6.15802        0.417
       22.61495       25.01046        6.21462        0.417
       22.22598       23.40975       10.91470       -0.834
       22.81600       23.49487       11.66360        0.417
       21.35254       23.35459       11.30237        0.417
       25.68750       19.26740        4.33047       -0.834
       25.25010       19.06588        5.15770        0.417
       26.17519       20.07198        4.50665        0.417
       23.65869       24.12324       18.59750       -0.834
       22.79621       24.05802       19.00750        0.417
       23.47929       24.42958       17.70856        0.417
       25.81905       16.63952       19.08006       -0.834
       25.36691       17.17839       19.72922        0.417
       25.45813       16.92251       18.23989        0.417
       17.05890       22.22075       20.07342       -0.834
       16.49035       22.04831       20.82392        0.417
       17.80908       22.68669       20.44270        0.417
       12.51208        4.96999       10.82206       -0.834
       13.15736        4.27497       10.69249        0.417
       11.74365        4.52131       11.17481        0.417
       21.00860       26.45998        7.99855       -0.834
       21.83578       25.99404        8.12066        0.417
       21.16144       27.32437        8.38027        0.417
       14.01507       20.22302       24.34164       -0.834
       13.25622       20.12565       23.76640        0.417
       13.69438       19.96904       25.20702        0.417
       15.47351       12.97683       30.09661       -0.834
       16.12950       12.94977       29.40006        0.417
       15.03820       13.82179       29.98361        0.417
       12.71153        6.35863       16.97768       -0.834
       11.85204        6.28626       17.39274        0.417
       12.99747        5.45293       16.85842        0.417
       20.46778        6.13599        7.94270       -0.834
       21.32032        5.78819        8.20437        0.417
       20.04603        5.41310        7.47815        0.417
       18.11104        6.37008       18.99363       -0.834
       18.46109        7.06012       18.43012        0.417
       17.16088        6.46702       18.92979        0.417
        4.72753       15.37864       22.58411       -0.834
        3.80612       15.62864       22.51533        0.417
        4.71438       14.42237       22.62426        0.417
       20.17645       11.39652       30.46217       -0.834
       20.05136       10.44753       30.46025        0.417
       19.85284       11.68296       29.60808        0.417
       26.81297       12.52396       24.35826       -0.834
       26.16392       12.60068       25.05760        0.417
       27.53646       13.08387       24.63983        0.417
       11.50389       13.41023       17.18502       -0.834
       11.75044       14.24883       16.79490        0.417
       12.30362       13.09815       17.60843        0.417
       19.82240       26.22319        5.48514       -0.834
       20.28226       25.41935        5.24305        0.417
       20.21034       26.47885        6.32202        0.417
       19.32303       15.39782       25.35846       -0.834
       18.49715       14.91895       25.28880        0.417
       19.91170       14.79600       25.81400        0.417
        7.27398       23.31086       21.62850       -0.834
        8.09531       23.75824       21.42478        0.417
        7.20096       22.62788       20.96184        0.417
       11.16003       14.82598       12.15811       -0.834
       11.84858       14.20868       11.91097        0.417
       10.34820       14.32563       12.07553        0.417
       15.28702       17.68236       24.78952       -0.834
       15.05867       18.59530       24.61451        0.417
       16.24223       17.68151       24.85129        0.417
       19.15592        4.31168       15.44249       -0.834
       20.00619        4.66914       15.18658        0.417
       19.25921        4.08497       16.36670        0.417
       15.18079       16.47107        4.58205       -0.834
       14.53648       16.01967        5.12734        0.417
       15.70598       16.97817        5.20112        0.417
       16.70104        6.49652       26.77387       -0.834
       17.14613        6.87154       26.01394        0.417
       17.32003        6.61065       27.49502        0.417
       14.23565       22.07237        5.15941       -0.834
       13.41655       22.13248        4.66779        0.417
       14.91349       22.30858        4.52618        0.417
        8.01925       15.44034       25.89006       -0.834
        8.28779       15.22463       24.99698        0.417
        7.53564       16.26184       25.80344        0.417
        6.35590       10.73323       11.61913       -0.834
        7.31159       10.71229       11.56969        0.417
        6.07590        9.92112       11.19688        0.417
       11.16065       23.02048        7.13433       -0.834
       11.88579       22.97689        7.75763        0.417
       10.80197       22.13312        7.12100        0.417
        8.66195       29.39331       20.77010       -0.834
        9.61184       29.46061       20.86709        0.417
        8.52280       28.54198       20.35524        0.417
       10.82491       27.41039       22.87994       -0.834
       10.29470       27.98828       23.42871        0.417
       11.23257       27.99430       22.24033        0.417
        3.61134       11.41115       12.25474       -0.834
        3.72021       12.11334       12.89607        0.417
        4.50185       11.10871       12.07652        0.417
       23.48519       15.92966       27.90843       -0.834
       23.10424       16.79059       27.73552        0.417
       24.37058       15.98232       27.54852        0.417
       11.40664       19.92206       23.47475       -0.834
       10.50723       19.62311       23.60864        0.417
       11.31527       20.80569       23.11829        0.417
       12.30542        3.78662       20.10938       -0.834
       11.82616        4.20886       19.39646        0.417
       13.22398        3.99276       19.93618        0.417
       11.35766       12.46167        6.19602       -0.834
       12.25470       12.43852        6.52922        0.417
       11.16093       11.55184        5.97301        0.417
       28.31899       23.54476       12.89552       -0.834
       28.05406       24.02588       12.11158        0.417
       27.66222       22.85443       12.98684        0.417
       19.34271       13.09966        8.85835       -0.834
       19.40120       12.25839        9.31120        0.417
       19.38287       13.75197        9.55771        0.417
       21.77428       11.03269        7.72767       -0.834
       21.39873       10.99272        8.60721        0.417
       22.31426       10.24514        7.66126        0.417
       11.23801        8.43788       21.22983       -0.834
       11.88601        8.98713       21.67103        0.417
       10.44114        8.54210       21.74980        0.417
       13.16456       11.19082       12.85612       -0.834