%Nproc=32
%Mem=120Gb
%chk=temp.chk
#p cam-b3lyp/6-31+G(d,p) nosymm charge Freq 

Calculation for S0 with freq for abs spect

0  1
 C         17.11584       17.76053       16.01946
 C         15.31401       16.16091       16.66334
 C         16.16213       15.21264       17.02051
 C         17.59750       15.47531       16.86621
 N         17.94906       16.78182       16.48792
 H         14.21719       16.05323       16.71654
 H         15.91637       14.32805       17.59946
 O         18.40571       14.78443       17.39543
 O         17.46990       18.82562       15.55422
 N         15.74966       17.36544       16.20803
 H         15.03835       18.05726       15.96003
 H         18.93648       17.09636       16.60907
 O         15.67268       11.89731       14.23167
 H         16.26105       12.64826       14.15341
 H         15.66887       11.69182       15.16656
 O         12.68622       16.73858       13.67789
 H         12.58647       15.95239       14.21473
 H         13.11279       17.37126       14.25580
 O         16.37044       11.82596       19.76602
 H         16.76445       11.71181       20.63087
 H         16.00226       12.70931       19.78473
 O         12.51865       14.58827       15.42336
 H         11.67385       14.17713       15.60643
 H         13.13385       13.85723       15.36570
 O         17.86604       18.14109       12.78983
 H         17.62053       18.10798       13.71442
 H         18.80660       18.31862       12.79749
 O         16.38530       20.76183       17.33034
 H         16.59612       20.31479       16.51061
 H         17.21134       21.15885       17.60650
 O         16.47177       11.72125       17.17972
 H         17.31570       12.08506       16.91205
 H         16.46882       11.79862       18.13378
 O         15.74593       16.89363       20.09571
 H         16.60827       16.75514       20.48739
 H         15.65188       17.84523       20.05273
 O         19.65937       15.55985       20.24201
 H         19.17562       15.47255       19.42067
 H         19.24441       16.29842       20.68760
 O         14.74703       14.20809       20.10866
 H         15.10295       15.08948       19.99599
 H         13.79871       14.33438       20.13973
 O         17.93820       13.86090       14.05966
 H         18.49484       13.92326       13.28345
 H         18.45582       13.35517       14.68618
 O         15.51974       19.52985       19.79731
 H         15.53550       20.18186       20.49792
 H         15.92348       19.97094       19.04987
 O         19.09508       12.11099       18.22970
 H         20.00988       11.86342       18.09520
 H         19.07781       13.05628       18.08017
 O         21.22239       14.16285       15.93609
 H         20.41199       14.07071       16.43708
 H         21.91870       14.04069       16.58143
 O         13.74875       19.34696       15.05298
 H         12.89549       19.72995       15.25671
 H         14.20616       20.02832       14.56026
 O         20.84424       17.56261       16.87374
 H         21.23468       16.71998       16.64186
 H         21.42647       17.92060       17.54388
 O         15.51899       17.22891       11.47883
 H         16.28605       17.63343       11.88406
 H         15.81823       16.35921       11.21369
 O         20.59916       19.24929       14.68669
 H         20.55220       18.69072       15.46261
 H         20.64958       18.63684       13.95279
 O         13.01094       17.37875       20.40187
 H         12.53802       16.56892       20.21016
 H         13.90692       17.20791       20.11157
 O         16.07362       14.21364       11.58698
 H         16.80605       14.23079       12.20301
 H         16.20464       13.41196       11.08065
 
       23.34232       18.23792       10.82861       -0.834
       23.34101       17.29264       10.67804        0.417
       23.71832       18.34117       11.70279        0.417
        9.25789       11.25701       14.81096       -0.834
        8.83388       11.91681       15.35970        0.417
        8.92846       11.43054       13.92913        0.417
       11.64745       15.69511       23.61992       -0.834
       10.84387       15.85607       23.12538        0.417
       11.36305       15.65327       24.53294        0.417
       30.29278       14.68016       24.29979       -0.834
       30.44331       15.46551       23.77367        0.417
       29.34021       14.59189       24.33211        0.417
        8.94023        9.65793        9.97818       -0.834
        9.48935       10.42109        9.79848        0.417
        8.09631       10.02586       10.24023        0.417
       23.02547        5.48042       12.99602       -0.834
       23.63043        5.94160       13.57703        0.417
       22.51772        6.17560       12.57752        0.417
       20.10518       21.38332        3.89148       -0.834
       19.95488       21.39999        2.94631        0.417
       19.23221       21.28508        4.27161        0.417
        8.03414       27.90823       14.84259       -0.834
        7.38187       27.71467       15.51587        0.417
        7.52066       28.07865       14.05294        0.417
       12.85920        6.64740       13.66297       -0.834
       13.64150        6.99197       13.23225        0.417
       12.17382        7.28435       13.46101        0.417
       16.14497       26.86940        6.67982       -0.834
       15.27306       26.73435        6.30867        0.417
       16.74447       26.69159        5.95510        0.417
       17.47353        2.64040       15.02547       -0.834
       16.65431        2.15239       14.94203        0.417
       17.22013        3.46589       15.43849        0.417
       19.39827       21.90225        7.39737       -0.834
       18.91838       21.73683        8.20890        0.417
       20.31856       21.79068        7.63578        0.417
       24.81753       11.67747       14.44110       -0.834
       24.13544       12.06928       13.89569        0.417
       25.20749       12.41759       14.90629        0.417
       11.99876       19.55391       28.40630       -0.834
       11.63633       19.97420       29.18620        0.417
       12.93740       19.48968       28.58257        0.417
       24.85012       21.87097       12.02457       -0.834
       24.25291       22.07245       12.74496        0.417
       25.18211       22.72331       11.74253        0.417
       26.19129        4.33845       16.79952       -0.834
       26.64107        4.08835       17.60660        0.417
       25.70377        5.12885       17.03152        0.417
       22.39627       30.59396       14.25869       -0.834
       22.62401       29.85256       14.81967        0.417
       23.22656       30.85987       13.86356        0.417
       16.53064       16.57426       23.81091       -0.834
       16.21411       17.08873       24.55346        0.417
       17.02747       15.85930       24.20868        0.417
       10.26438       20.43218        8.25246       -0.834
       10.96218       19.94086        8.68595        0.417
        9.97882       21.07069        8.90592        0.417
       12.96674       10.86462       11.01117       -0.834
       13.74538       10.40574       11.32643        0.417
       12.95134       11.68160       11.50971        0.417
        6.87225       11.23363       10.26354       -0.834
        6.68462       11.97393        9.68650        0.417
        6.02797       11.01820       10.65977        0.417
        6.06267       10.62554       21.99860       -0.834
        6.97834       10.52853       21.73713        0.417
        5.96983       10.05690       22.76297        0.417
       20.13395       29.27096       21.40506       -0.834
       19.57870       29.08672       20.64744        0.417
       19.76241       28.74016       22.10965        0.417
       13.58528       15.53972       27.50072       -0.834
       14.21545       14.97160       27.05760        0.417
       13.64276       16.37278       27.03281        0.417
       14.16482       18.37856        2.62495       -0.834
       13.65544       17.64784        2.97540        0.417
       14.36334       18.92070        3.38843        0.417
       27.27069       20.93684       12.07889       -0.834
       26.36268       21.21593       12.19667        0.417
       27.20622       20.02853       11.78383        0.417
        8.15647        7.93715        7.96913       -0.834
        7.60006        7.21059        8.24974        0.417
        8.25977        8.47690        8.75286        0.417
       23.21966        7.05534       15.33039       -0.834
       23.07602        6.42682       16.03789        0.417
       23.72487        7.76062       15.73483        0.417
       26.21630        5.87256        9.94069       -0.834
       25.80451        6.31216       10.68461        0.417
       26.69827        5.14287       10.32988        0.417
       27.51532       11.36095        7.96200       -0.834
       26.76795       10.76365        7.99226        0.417
       27.13783       12.20541        7.71579        0.417
       22.82104       22.25419        4.03963       -0.834
       23.40060       21.58919        4.41126        0.417
       21.94304       21.88295        4.12642        0.417
       30.04425       13.34107       15.93621       -0.834
       29.30400       13.92849       16.08848        0.417
       29.64737       12.53619       15.60321        0.417
       20.30933        6.53025        6.83272       -0.834
       19.50374        6.01981        6.91457        0.417
       20.58884        6.68387        7.73523        0.417
        9.29338       27.89420       17.87663       -0.834
        9.80543       28.55369       18.34472        0.417
        9.94195       27.39368       17.38158        0.417
       22.17434        9.05450       19.93287       -0.834
       21.43013        9.63521       20.09152        0.417
       22.12914        8.40844       20.63770        0.417
       17.80888        5.15133       19.38495       -0.834
       17.15905        5.84583       19.27715        0.417
       17.57553        4.49961       18.72385        0.417
       11.56876       31.13721       15.69322       -0.834
       10.71374       30.93081       16.07081        0.417
       11.82117       30.34301       15.22229        0.417
       14.07725        5.28700       21.89247       -0.834
       14.94567        5.65636       21.73233        0.417
       13.49958        5.76541       21.29778        0.417
       10.12160       22.08610       22.21319       -0.834
        9.93134       23.00713       22.39132        0.417
       10.74701       21.83447       22.89274        0.417
       29.00890       22.81016       10.73420       -0.834
       28.47432       22.09255       11.07404        0.417
       29.90270       22.46764       10.74096        0.417
       23.82350       11.97652       23.39556       -0.834
       23.33206       11.74754       22.60671        0.417
       23.91443       11.15015       23.86999        0.417
       11.45506        9.36187       15.22246       -0.834
       12.07690        9.61404       15.90507        0.417
       10.92475       10.14580       15.07943        0.417
       28.72884       21.41046       20.28939       -0.834
       29.59032       21.80005       20.14005        0.417
       28.23010       21.62105       19.49999        0.417
       22.02947        3.22941       16.07695       -0.834
       21.84126        3.77243       15.31149        0.417
       21.53270        2.42481       15.92840        0.417
       10.93406       29.58530       19.17993       -0.834
       10.61624       30.14704       19.88680        0.417
       11.80191       29.93067       18.97068        0.417
       18.22282       17.39956       21.79690       -0.834
       18.26931       18.34560       21.93508        0.417
       17.59537       17.09203       22.45109        0.417
       13.98623       11.84480       22.57203       -0.834
       13.95183       10.92661       22.84032        0.417
       14.65539       11.87007       21.88806        0.417
       12.75492        3.58443       24.02518       -0.834
       12.04640        4.22803       24.02172        0.417
       13.35743        3.88715       23.34579        0.417
        9.26699       22.79241       27.63982       -0.834
        8.52021       23.22922       28.04939        0.417
       10.03388       23.21333       28.02833        0.417
       27.10261       14.22473       15.87091       -0.834
       27.43523       14.84439       16.52024        0.417
       26.94582       13.42019       16.36524        0.417
       21.55948        3.48426        9.52808       -0.834
       20.70931        3.35728        9.10699        0.417
       21.43339        4.24150       10.09984        0.417
        5.77847       11.84404       18.64557       -0.834
        4.86435       12.12056       18.71029        0.417
        6.26987       12.53307       19.09279        0.417
       23.23160       15.25088       17.79320       -0.834
       23.73957       15.62390       18.51365        0.417
       23.68861       15.53889       17.00300        0.417
       11.34658       22.91414        9.97759       -0.834
       11.64471       23.05952        9.07969        0.417
       11.38176       23.77950       10.38521        0.417
       14.42980       19.84488       11.10798       -0.834
       15.00816       19.13753       11.39328        0.417
       13.88363       19.44913       10.42879        0.417
       20.38915       13.84176       24.53982       -0.834
       19.83570       14.59999       24.72692        0.417
       20.01357       13.13508       25.06496        0.417
       20.98254       22.42677       10.34701       -0.834
       21.20321       23.16554        9.77978        0.417
       21.78282       21.90268       10.38073        0.417
       28.17915       11.52699       19.65884       -0.834
       28.73981       10.76398       19.51846        0.417
       27.72595       11.34363       20.48177        0.417
       20.55602       23.86220       13.06407       -0.834
       20.62322       23.40398       12.22637        0.417
       20.68287       24.78501       12.84369        0.417
       15.97255       23.76330        6.33965       -0.834
       15.94069       23.30416        7.17893        0.417
       15.57212       24.61456        6.51644        0.417
       23.57686       16.32016        7.38899       -0.834
       23.64117       16.28177        6.43473        0.417
       22.72201       16.71704        7.55614        0.417
       12.92031       16.33205       10.99804       -0.834
       12.83732       16.42838       11.94675        0.417
       13.67142       16.87821       10.76615        0.417
       13.25035       23.77430        7.77480       -0.834
       12.84728       24.03909        6.94797        0.417
       13.62988       24.57997        8.12563        0.417
        8.18606       18.60437       13.72651       -0.834
        8.39407       19.41788       14.18603        0.417
        7.72581       18.07281       14.37600        0.417
       21.24845        6.26720       10.02264       -0.834
       21.94654        6.84145       10.33752        0.417
       20.43944        6.71665       10.26702        0.417
       25.35746       25.36831       16.86307       -0.834
       26.26687       25.28153       17.14885        0.417
       25.38668       25.21275       15.91904        0.417
       22.79161       19.35511       18.13711       -0.834
       22.01458       19.87534       18.34158        0.417
       23.29170       19.33977       18.95314        0.417
        4.17931       14.49948       20.12849       -0.834
        4.00724       14.79352       19.23397        0.417
        5.13373       14.45684       20.18768        0.417
        8.80701       12.89909       21.69557       -0.834
        8.72328       11.96982       21.48182        0.417
        9.74769       13.03557       21.80840        0.417
        5.69913       11.99305        6.88711       -0.834
        5.93252       12.00125        5.95884        0.417
        6.28205       12.63854        7.28684        0.417
       11.49993       21.26988       16.90636       -0.834
       11.61122       21.93513       17.58554        0.417
       11.52405       20.43791       17.37909        0.417
       15.71828        9.14581       22.88947       -0.834
       16.22100        8.34397       22.74613        0.417
       14.88684        8.99117       22.44112        0.417
        5.99934        9.92425       24.82880       -0.834
        6.92718        9.87907       25.05964        0.417
        5.62923       10.55636       25.44500        0.417
       23.76638       15.40313        4.30014       -0.834
       24.59047       15.42790        3.81383        0.417
       23.54871       16.32304        4.45049        0.417
        9.21257       16.21038       22.42929       -0.834
        9.25388       16.99678       21.88514        0.417
        8.34806       15.84022       22.25087        0.417
       25.89656       12.51969       25.41187       -0.834
       25.00047       12.60436       25.08615        0.417
       25.82453       12.67021       26.35441        0.417
       19.78762       26.76706       22.75816       -0.834
       20.17951       27.16771       23.53413        0.417
       18.85624       26.69830       22.96800        0.417
       26.71243       23.95060       19.64667       -0.834
       27.21374       24.39625       18.96379        0.417
       26.92452       24.42676       20.44949        0.417
       19.43543       28.42222       17.08753       -0.834
       19.15932       28.60459       16.18935        0.417
       20.28859       27.99822       16.99493        0.417
       18.97111       12.60539       28.14179       -0.834
       19.79047       12.90309       28.53708        0.417
       19.24058       11.96046       27.48781        0.417
        5.30659       25.81705       17.31736       -0.834
        5.22211       25.17388       18.02122        0.417
        5.13374       25.32113       16.51709        0.417
       13.93384       17.30927       25.13193       -0.834
       13.50052       17.16097       24.29141        0.417
       14.17378       18.23580       25.11806        0.417
       20.06061       15.53885       30.23634       -0.834
       19.54013       16.11377       30.79741        0.417
       19.97586       15.91680       29.36101        0.417
       14.12567       26.44864        8.57225       -0.834
       13.62570       27.22897        8.81172        0.417
       14.95207       26.78894        8.22948        0.417
       26.67185        9.78929       15.08728       -0.834
       26.28732       10.64146       14.88194        0.417
       26.87527        9.83660       16.02142        0.417
       28.59387       22.08046       17.46169       -0.834
       28.33300       22.89159       17.02553        0.417
       28.11067       21.39430       17.00133        0.417
       15.13231        2.97281       13.29080       -0.834
       15.59400        3.47198       12.61707        0.417
       14.68406        2.27744       12.80937        0.417
       18.23936       22.81949       17.22851       -0.834
       19.05953       22.56100       16.80811        0.417
       18.50756       23.39773       17.94262        0.417
        8.77589       24.05389       19.37944       -0.834
        8.61885       24.40376       18.50242        0.417
        8.37176       23.18627       19.36761        0.417
       24.75339       11.99824       10.41717       -0.834
       24.22584       12.45373        9.76108        0.417
       24.12706       11.45111       10.89108        0.417
       23.38611       23.19578       17.52947       -0.834
       23.89103       23.88441       17.09695        0.417
       23.78059       23.11857       18.39818        0.417
       24.76470       25.32063       14.17094       -0.834
       24.18617       24.55853       14.14357        0.417
       25.50078       25.08353       13.60685        0.417
       24.84483        4.25721       20.49676       -0.834
       24.77351        4.95046       19.84060        0.417
       25.26233        3.53076       20.03395        0.417
       16.67538        7.01661       17.49086       -0.834
       15.75497        7.25639       17.59853        0.417
       17.15384        7.66094       18.01253        0.417
       13.78661       24.24710       23.07189       -0.834
       13.52665       24.38807       23.98226        0.417
       13.64786       23.31150       22.92481        0.417
       20.23473       10.77762       21.24884       -0.834
       19.92465        9.89531       21.45285        0.417
       19.44351       11.26109       21.01122        0.417
       13.51422       26.28417        5.40280       -0.834
       13.94559       26.49364        4.57438        0.417
       13.04739       25.46654        5.23027        0.417
        9.50965       11.26516        6.62121       -0.834
        9.92743       11.31845        7.48077        0.417
        9.13776       12.13591        6.48073        0.417
        7.85772        8.98488       14.34862       -0.834
        8.45733        9.67573       14.63047        0.417
        7.00268        9.25926       14.68006        0.417
       19.13015        9.30216        8.78168       -0.834
       18.91374        8.64666        8.11857        0.417
       18.94173        8.87138        9.61544        0.417
       26.00182       16.82165       25.80542       -0.834
       25.36441       17.45929       26.12691        0.417
       26.81244       17.03985       26.26533        0.417
       12.43504       28.75947       14.30320       -0.834
       12.95656       28.82048       13.50288        0.417
       13.07961       28.76664       15.01082        0.417
       15.20497       25.70965       12.49900       -0.834
       15.61837       24.84910       12.56824        0.417
       14.34281       25.59457       12.89857        0.417
       12.48408        9.66446       25.22934       -0.834
       13.00737       10.46595       25.22986        0.417
       12.43294        9.41064       26.15086        0.417
       22.71549       13.54726       13.45982       -0.834
       22.14381       13.77432       14.19320        0.417
       22.24549       13.85519       12.68489        0.417
       26.64101       11.81538       17.25778       -0.834
       27.29912       11.76293       17.95087        0.417
       25.84048       12.08664       17.70700        0.417
       21.19199       21.59319       17.99595       -0.834
       21.91052       22.22398       18.04111        0.417
       20.83968       21.69365       17.11163        0.417
       20.59812        9.80784        5.81898       -0.834
       20.20392       10.40268        5.18101        0.417
       19.86525        9.51945        6.36300        0.417
       18.67953       16.09829       25.62669       -0.834
       18.31060       16.97425       25.51346        0.417
       19.06650       16.11218       26.50207        0.417
       23.50306       23.97687        6.21679       -0.834
       23.31201       23.40752        5.47142        0.417
       24.09239       24.64381        5.86448        0.417
       24.42950       18.66777       13.12301       -0.834
       25.03966       18.20981       13.70112        0.417
       24.20520       19.46866       13.59683        0.417
        5.48058        9.15901       18.68746       -0.834
        6.14217        8.77964       19.26591        0.417
        5.66761       10.09775       18.69210        0.417
       23.19866       11.84714       29.08628       -0.834
       22.89114       11.44945       29.90083        0.417
       22.42973       12.29378       28.73203        0.417
       11.76209       23.87318        5.35775       -0.834
       10.82645       24.07444        5.37504        0.417
       11.84865       23.19141        4.69147        0.417
       10.50477       13.81084       17.39613       -0.834
        9.85374       14.47889       17.61083        0.417
        9.99222       13.07528       17.06074        0.417
       12.85540       27.60377       27.04091       -0.834
       13.15297       28.48130       27.28099        0.417
       13.09151       27.51454       26.11759        0.417
       12.05191       15.03182       19.62483       -0.834
       11.75509       14.68166       20.46478        0.417
       11.31961       14.87722       19.02811        0.417
       22.37981       21.53103        7.29824       -0.834
       22.72506       22.38625        7.04206        0.417
       22.67222       21.41518        8.20229        0.417
       20.84982       17.32164        7.06401       -0.834
       20.98629       18.21770        6.75628        0.417
       20.42689       16.87733        6.32919        0.417
       20.21963       26.10383       19.89648       -0.834
       19.55739       25.41565       19.83251        0.417
       20.19286       26.37818       20.81313        0.417
       19.86134       15.73955        9.53485       -0.834
       19.66201       15.09793        8.85307        0.417
       20.05838       16.54481        9.05635        0.417
       26.47718       13.71578        6.87055       -0.834
       25.61246       13.83408        6.47749        0.417
       26.69067       14.57138        7.24283        0.417
       16.45115        8.57920       19.92766       -0.834
       16.52743        9.53109       19.99341        0.417
       15.51446        8.40640       20.02241        0.417
       16.89043       17.21085        2.11688       -0.834
       16.06411       17.04295        2.56990        0.417
       17.25678       17.97534        2.56137        0.417
       13.13107       19.03204       22.86682       -0.834
       12.24983       18.91436       23.22150        0.417
       13.23699       18.31310       22.24380        0.417
       15.23501        9.90842       30.68419       -0.834
       15.83687       10.08223       31.40793        0.417
       15.06895       10.76851       30.29832        0.417
       21.67943       24.43328       25.63037       -0.834
       21.84801       25.30860       25.28161        0.417
       22.46733       24.21796       26.12946        0.417
       17.17792       11.97650       10.70855       -0.834
       17.10044       12.13728        9.76813        0.417
       18.07349       12.23716       10.92359        0.417
       21.36966       19.53089        5.61191       -0.834
       21.68608       20.18871        6.23109        0.417
       20.87440       20.03072        4.96298        0.417
        8.78282       24.86933       23.74652       -0.834
        8.21685       24.53613       23.05018        0.417
        8.23342       25.48912       24.22637        0.417
       19.48233       16.30216        2.09248       -0.834
       19.83573       15.49353        1.72171        0.417
       18.56259       16.30585        1.82735        0.417
       16.02569       23.12614       15.54747       -0.834
       16.50810       22.95041       16.35532        0.417
       16.05089       22.29810       15.06794        0.417
       17.92939       25.07136       14.31349       -0.834
       17.44955       25.89198       14.20139        0.417
       17.27402       24.45211       14.63483        0.417
        8.17940       20.54752       17.72428       -0.834
        8.82017       20.79819       18.38972        0.417
        7.34541       20.87884       18.05733        0.417
       22.51045       16.82539       24.43636       -0.834
       22.76672       17.31712       25.21659        0.417
       22.91899       15.96707       24.54869        0.417
       15.75113       23.84589       20.42377       -0.834
       15.70822       23.54850       21.33259        0.417
       15.65793       24.79700       20.47784        0.417
       18.04152       28.32347       19.39562       -0.834
       18.47314       28.66189       18.61114        0.417
       17.79972       27.42569       19.16811        0.417
       29.16162       10.93545       14.42211       -0.834
       29.55994       10.29050       13.83763        0.417
       28.49466       10.44462       14.90220        0.417
       23.24929        2.93398       12.06099       -0.834
       22.99559        3.23655       11.18903        0.417
       23.10705        3.69145       12.62865        0.417
       15.21451       24.39369       27.36335       -0.834
       14.83685       23.56625       27.66160        0.417
       15.44032       24.85864       28.16900        0.417
       19.66095       14.04408       11.52914       -0.834
       19.69075       14.78728       10.92665        0.417
       20.10308       13.33671       11.05971        0.417
       23.18843       24.28760       21.32616       -0.834
       23.60470       23.64497       20.75172        0.417
       22.82378       24.94173       20.73003        0.417
       25.24303        9.75637        7.57473       -0.834
       25.17634        9.13834        6.84684        0.417
       24.35350       10.09145        7.68732        0.417
       15.15387        6.46544        5.72881       -0.834
       14.52066        7.12155        5.43761        0.417
       15.95114        6.66743        5.23912        0.417
       15.31097        7.18140       12.40029       -0.834
       15.51400        8.05078       12.05507        0.417
       15.85641        7.10047       13.18271        0.417
        2.20007       17.79750       14.37382       -0.834
        3.14529       17.81910       14.52327        0.417
        1.85419       17.27784       15.09947        0.417
       24.14718       28.31514       11.94679       -0.834
       25.09001       28.25925       11.79131        0.417
       24.05682       28.25520       12.89783        0.417
       18.26529       26.76357        5.04544       -0.834
       18.85961       26.11246        5.41836        0.417
       18.64779       26.97823        4.19465        0.417
       22.55572        5.55784       17.48342       -0.834