%Nproc=32
%Mem=120Gb
%chk=temp.chk
#p cam-b3lyp/6-31+G(d,p) nosymm charge Freq 

Calculation for S0 with freq for abs spect

0  1
 C         15.42142       17.00943       15.93048
 C         17.62910       16.02356       15.66831
 C         17.99793       16.44014       16.86186
 C         16.98251       16.96272       17.81151
 N         15.75679       17.22744       17.28061
 H         18.32176       15.58545       14.95107
 H         18.92699       16.48036       17.33496
 O         17.21285       17.33638       18.93235
 O         14.28266       17.22879       15.56987
 N         16.34964       16.33176       15.21042
 H         16.09901       16.07562       14.27729
 H         15.05195       17.62420       17.87715
 O         18.17157       18.70524       21.24977
 H         18.35244       18.21098       22.04928
 H         17.84313       18.05146       20.63257
 O         14.37019       19.88334       19.87241
 H         13.43121       19.84200       19.69119
 H         14.56744       19.05372       20.30721
 O         20.19914       17.55732       14.09598
 H         20.29353       18.33293       13.54303
 H         21.09260       17.23301       14.20904
 O         15.99311       19.07585       12.87876
 H         16.74708       18.72811       12.40249
 H         15.28969       18.45064       12.70400
 O         14.31792       15.37786       19.60531
 H         13.53936       15.91573       19.74945
 H         14.08752       14.81545       18.86582
 O         19.86190       14.28647       19.59710
 H         18.98982       14.32772       19.98954
 H         20.32431       15.04197       19.95991
 O         17.17163       14.23359       20.43598
 H         16.27711       14.54459       20.29692
 H         17.22341       13.41977       19.93474
 O         16.62423       21.09732       14.88106
 H         17.19366       20.41960       15.24530
 H         16.10610       20.64363       14.21627
 O         14.82245       16.26604       12.52702
 H         15.33363       15.58161       12.09519
 H         13.94442       15.89389       12.60945
 O         18.09650       20.50834       19.08739
 H         18.11584       19.79133       19.72124
 H         18.35141       20.10293       18.25860
 O         18.39465       19.55619       16.10807
 H         19.24195       19.94346       15.88820
 H         18.49914       18.62459       15.91461
 O         20.77716       14.24385       16.69982
 H         21.48439       14.88876       16.71191
 H         20.40379       14.28061       17.58043
 O         11.64411       18.07015       16.84328
 H         12.42582       18.37583       16.38314
 H         11.06020       18.82855       16.85435
 O         15.71062       13.52073       13.80039
 H         15.50285       13.26083       14.69790
 H         14.89119       13.40153       13.32023
 O         13.70418       13.50416       15.94298
 H         13.12419       12.93329       16.44692
 H         13.16538       14.26618       15.73026
 O         14.67766       17.56429       21.45272
 H         15.18075       17.21425       22.18799
 H         14.69117       16.86570       20.79848
 
       13.10386       22.16658       22.34463       -0.834
       13.43563       21.36812       22.75527        0.417
       12.17735       21.98705       22.18470        0.417
       23.31857       18.63085       22.11939       -0.834
       22.47691       19.08168       22.05159        0.417
       23.11383       17.71258       21.94308        0.417
       31.26641       13.06563       12.03171       -0.834
       31.43794       12.45441       11.31532        0.417
       30.38348       13.39360       11.86113        0.417
        5.76208       17.28167       10.12763       -0.834
        6.03932       16.94044       10.97788        0.417
        5.55211       18.20050       10.29468        0.417
       20.60410       29.21123       19.73568       -0.834
       20.54102       30.15520       19.59017        0.417
       19.93232       29.02406       20.39135        0.417
       21.54116       18.68431        4.17335       -0.834
       20.59207       18.56416        4.20541        0.417
       21.67817       19.32855        3.47878        0.417
       23.93309       25.68114       20.59381       -0.834
       24.05509       25.22225       19.76269        0.417
       22.98939       25.64723       20.75040        0.417
       13.74503        6.94292        6.38756       -0.834
       13.46476        6.25490        5.78398        0.417
       14.61246        6.66519        6.68196        0.417
       27.28302       24.08249       21.43306       -0.834
       26.47848       23.57745       21.31526        0.417
       27.04578       24.97444       21.17933        0.417
       13.41455       12.62289        6.86586       -0.834
       13.63920       13.21049        7.58731        0.417
       13.21856       11.78708        7.28923        0.417
       18.35621        5.98047        8.94894       -0.834
       18.64426        6.30003        9.80400        0.417
       17.82620        5.20849        9.14734        0.417
        5.35249       15.08426       21.21280       -0.834
        5.70353       15.55249       21.97027        0.417
        5.63520       14.17844       21.33844        0.417
       18.87187       29.00069       22.06282       -0.834
       18.18211       29.58948       22.36908        0.417
       18.55357       28.12454       22.28027        0.417
       19.54661       21.09272       10.54724       -0.834
       20.08663       21.84468       10.30397        0.417
       18.73759       21.20691       10.04858        0.417
       15.84292       15.92940       30.05777       -0.834
       16.74777       16.22893       30.14583        0.417
       15.82435       15.46449       29.22127        0.417
       15.74517       24.55173        5.22118       -0.834
       15.56320       24.50867        6.15994        0.417
       16.56809       24.07467        5.11411        0.417
        5.98665        9.06172       20.39709       -0.834
        5.82775        9.41934       21.27064        0.417
        5.24105        9.36020       19.87630        0.417
        9.62801        9.32156       13.81131       -0.834
        8.89047        9.25535       14.41784        0.417
        9.75009       10.26233       13.68371        0.417
        4.17657       12.28835       23.43701       -0.834
        4.14369       12.35403       22.48263        0.417
        4.99790       11.83130       23.61796        0.417
        2.33706       17.38406       17.15092       -0.834
        2.05669       16.51313       16.86966        0.417
        3.15968       17.53351       16.68487        0.417
       16.85140        7.70141        7.35081       -0.834
       16.65552        8.30425        8.06806        0.417
       17.43908        7.05195        7.73691        0.417
       27.54608       20.19330        7.65830       -0.834
       27.39973       21.13924        7.65939        0.417
       28.08083       20.03409        6.88053        0.417
       21.68118       23.06097       25.76657       -0.834
       22.42723       22.81925       25.21774        0.417
       21.83331       22.60339       26.59344        0.417
        2.45496       13.49598       16.02381       -0.834
        2.94131       13.15972       15.27106        0.417
        2.08288       14.32352       15.71891        0.417
       18.34104       27.31807       11.77964       -0.834
       17.96324       28.19741       11.79594        0.417
       17.86080       26.83800       12.45427        0.417
       23.30175       14.15308       13.39459       -0.834
       23.93832       14.22061       12.68293        0.417
       23.78976       13.75652       14.11627        0.417
       23.42614       15.57893        3.52541       -0.834
       23.00355       15.16032        4.27536        0.417
       23.53466       16.49237        3.79013        0.417
       16.27300       23.37511       27.98345       -0.834
       17.15831       23.31191       27.62502        0.417
       16.24053       24.24032       28.39160        0.417
        8.05076        9.97839       24.54066       -0.834
        9.00397       10.05512       24.58227        0.417
        7.88541        9.03560       24.54624        0.417
       15.19392       22.11470       12.16433       -0.834
       16.08538       22.46217       12.19260        0.417
       15.12739       21.69403       11.30710        0.417
       12.66440       29.23757       16.83870       -0.834
       12.74896       28.63401       17.57680        0.417
       13.55132       29.56819       16.69622        0.417
       17.67578        8.81392        5.02576       -0.834
       17.84841        8.11537        4.39453        0.417
       17.30913        8.36422        5.78706        0.417
       21.23881       27.24474        8.45267       -0.834
       21.00627       27.55248        9.32871        0.417
       20.87242       26.36182        8.40335        0.417
       25.59926       10.29465       23.76923       -0.834
       25.78385        9.71373       23.03120        0.417
       26.35406       10.88210       23.80687        0.417
       25.87048       19.43437       21.03664       -0.834
       25.27463       19.35644       21.78171        0.417
       25.37791       19.93575       20.38685        0.417
       27.55607       26.39749       15.57593       -0.834
       26.97804       26.88362       14.98790        0.417
       28.37864       26.88680       15.56253        0.417
       20.68445       13.47095        3.62772       -0.834
       19.93264       14.03161        3.81919        0.417
       21.18027       13.44659        4.44613        0.417
        8.21609       19.16067       10.26918       -0.834
        8.96474       18.99919       10.84335        0.417
        7.47322       19.25759       10.86498        0.417
       23.17441       10.67403       13.91613       -0.834
       23.29798       11.62123       13.97767        0.417
       22.41939       10.56761       13.33746        0.417
       11.39153        3.03287       14.08586       -0.834
       11.87940        3.75245       13.68536        0.417
       11.50540        3.16060       15.02764        0.417
       23.94926       24.84713        8.13388       -0.834
       24.54666       25.57580        7.96541        0.417
       23.55757       25.04945        8.98351        0.417
       28.60410       19.85495       15.06328       -0.834
       28.76211       19.77535       14.12257        0.417
       27.66349       20.01689       15.13578        0.417
       31.21045       19.41055       16.65409       -0.834
       30.49479       19.48092       16.02234        0.417
       31.37994       18.47086       16.72102        0.417
        7.95156        8.64877        7.96322       -0.834
        8.57003        8.11900        7.46016        0.417
        7.46666        8.01469        8.49147        0.417
       22.39290        2.79523       19.75932       -0.834
       21.93890        2.21495       20.37037        0.417
       22.33224        3.66183       20.16127        0.417
       21.68489        5.26823       20.69701       -0.834
       22.17960        5.77306       21.34248        0.417
       20.80746        5.65039       20.71471        0.417
        8.53350       20.08503        4.99488       -0.834
        8.71557       19.23256        4.59943        0.417
        8.56718       19.92424        5.93788        0.417
       13.07451       12.83545       12.75577       -0.834
       12.98015       13.78015       12.63382        0.417
       12.28211       12.46319       12.36878        0.417
        8.02638       24.75282       24.08157       -0.834
        8.77912       25.21314       24.45266        0.417
        8.12959       24.84828       23.13475        0.417
        7.87261        7.25364       23.88305       -0.834
        7.43201        7.11080       24.72072        0.417
        7.62657        6.49732       23.35043        0.417
       15.15054       16.24685       23.96380       -0.834
       15.37439       15.34587       23.73066        0.417
       15.67432       16.43013       24.74373        0.417
       17.69053       27.27543       25.25323       -0.834
       18.07637       26.86722       24.47817        0.417
       17.05864       26.63194       25.57396        0.417
        5.02663       16.80453       16.90214       -0.834
        5.10849       16.14722       16.21114        0.417
        4.68263       16.32135       17.65343        0.417
       17.06690       29.19077       16.22791       -0.834
       16.21006       29.61336       16.28692        0.417
       17.64660       29.87056       15.88430        0.417
       21.83406       13.66217        9.96128       -0.834
       22.46114       14.05502        9.35409        0.417
       21.02092       13.60067        9.46004        0.417
       12.22390       11.17288       22.70997       -0.834
       12.81768       10.89403       22.01290        0.417
       12.70483       11.85719       23.17543        0.417
       20.28165       11.51872       22.95403       -0.834
       20.70720       10.69567       23.19432        0.417
       20.61705       11.71591       22.07947        0.417
        8.45087       20.77280       25.54968       -0.834
        8.43536       20.25956       24.74186        0.417
        7.64959       21.29543       25.51737        0.417
        8.60808       12.90224        5.03882       -0.834
        9.25060       13.12126        5.71368        0.417
        8.29571       12.02989        5.27895        0.417
       12.92091        8.91377       26.37614       -0.834
       13.47643        8.17666       26.12258        0.417
       13.53077        9.56719       26.71870        0.417
       18.76224       18.48746       23.90622       -0.834
       18.99243       19.41393       23.97620        0.417
       19.39681       18.03959       24.46566        0.417
       28.55298       11.09596       11.52544       -0.834
       27.70594       10.80409       11.86244        0.417
       28.48782       12.05076       11.50693        0.417
        7.73183        7.53916       12.16041       -0.834
        7.70192        8.47868       11.97976        0.417
        8.29241        7.46093       12.93233        0.417
       24.11946       19.29490       16.27082       -0.834
       23.68208       18.82006       16.97755        0.417
       23.50982       19.99559       16.03928        0.417
       23.36413       19.02748       24.87722       -0.834
       23.31107       18.59779       24.02353        0.417
       24.27358       19.31865       24.94322        0.417
        9.32748       25.65029       11.09730       -0.834
        9.31589       24.69379       11.13202        0.417
        9.41809       25.85557       10.16677        0.417
       28.10274       13.84611       11.14162       -0.834
       27.90882       13.93867       12.07439        0.417
       27.27398       14.04022       10.70378        0.417
        6.38306        6.22540       16.77843       -0.834
        6.26109        5.55687       17.45254        0.417
        6.95369        5.81179       16.13071        0.417
       17.20296        8.31682       20.25782       -0.834
       16.58902        8.97159       19.92527        0.417
       17.41496        7.77775       19.49579        0.417
       22.30234       26.94251       23.57074       -0.834
       23.04410       27.14279       24.14162        0.417
       21.88314       27.78902       23.41605        0.417
        7.34620       21.55944       21.05464       -0.834
        7.17143       20.62483       21.16506        0.417
        6.50428       21.98256       21.22309        0.417
        4.22633       25.30900       12.38840       -0.834
        4.78464       24.53941       12.27775        0.417
        3.83761       25.20069       13.25639        0.417
       14.28680       10.28037       11.17850       -0.834
       14.31376       11.23449       11.25035        0.417
       13.37147       10.08022       10.98264        0.417
       15.15236        6.88696       13.19107       -0.834
       15.53200        7.76549       13.17416        0.417
       15.87101        6.30995       12.93256        0.417
       12.73299       23.22241        5.77384       -0.834
       11.87715       23.45708        6.13259        0.417
       13.20940       24.05135        5.72781        0.417
        6.14889       18.27725        7.19647       -0.834
        6.80100       17.67467        6.83887        0.417
        6.08628       18.04142        8.12205        0.417
       25.07778       12.13702       27.43045       -0.834
       25.78705       11.52983       27.21952        0.417
       25.47118       13.00525       27.34305        0.417
       20.31644        6.21712       23.55959       -0.834
       20.02671        6.86277       24.20412        0.417
       20.89371        5.63140       24.04941        0.417
        6.81137       17.39944       13.54300       -0.834
        7.16454       18.28655       13.61041        0.417
        7.55019       16.86904       13.24457        0.417
        7.50740        4.25507       15.17114       -0.834
        7.47144        4.19537       14.21648        0.417
        8.44170        4.30346       15.37354        0.417
        5.12514        8.31537       15.59185       -0.834
        4.22603        8.40534       15.90766        0.417
        5.46084        7.53972       16.04119        0.417
        7.59086       25.75830       21.44410       -0.834
        6.68690       26.05255       21.55589        0.417
        7.56192       25.17758       20.68373        0.417
       21.64528        9.06564       22.68067       -0.834
       21.85183        8.13099       22.67830        0.417
       21.75288        9.33751       21.76922        0.417
       13.92598        1.53474       19.00240       -0.834
       13.39623        2.33053       18.95435        0.417
       13.70469        1.14996       19.85046        0.417
       16.88628       13.40551        5.90435       -0.834
       17.33536       12.57168        6.04319        0.417
       16.10480       13.35172        6.45448        0.417
       13.61363        8.74239        4.28176       -0.834
       13.27043        7.98992        3.79987        0.417
       13.70258        8.43040        5.18231        0.417
       16.62543        2.10855       19.05562       -0.834
       16.71508        1.20433       19.35658        0.417
       15.72184        2.16988       18.74578        0.417
       15.90532        3.98472       21.22613       -0.834
       16.71650        3.55385       20.95672        0.417
       15.58443        4.41074       20.43130        0.417
       24.11505       13.03828       23.59991       -0.834
       24.16493       12.34052       24.25327        0.417
       24.45256       12.64025       22.79748        0.417
       24.51095       22.19287       11.89772       -0.834
       25.26038       21.99365       11.33657        0.417
       24.14259       21.33749       12.11880        0.417
       10.49261       15.29488        5.72468       -0.834
       10.26523       14.52276        6.24272        0.417
       11.29496       15.04765        5.26495        0.417
       14.71679       10.72468       28.06578       -0.834
       14.56275       11.56803       28.49152        0.417
       15.58693       10.80811       27.67576        0.417
       28.03027       10.50208       19.02404       -0.834
       28.58391       10.71146       19.77628        0.417
       28.39695        9.68974       18.67491        0.417
       11.52771        8.63477       28.94236       -0.834
       11.82684        7.75316       29.16490        0.417
       12.30388        9.06951       28.58909        0.417
       15.65186       22.34224       18.88404       -0.834
       14.85480       22.01937       19.30439        0.417
       16.29840       21.65244       19.03369        0.417
       29.35240       24.11672       12.75594       -0.834
       28.58594       24.37937       13.26563        0.417
       29.16074       24.41089       11.86546        0.417
       30.95113       14.47420       18.82707       -0.834
       30.56975       14.96589       19.55440        0.417
       31.66665       13.97656       19.22283        0.417
       23.76424       27.80793        8.26199       -0.834
       22.83623       27.66215        8.44580        0.417
       24.18907       27.75907        9.11835        0.417
       13.51852       13.64615        9.38732       -0.834
       14.30649       13.54862        9.92195        0.417
       13.08064       14.41897        9.74401        0.417
       26.50522       26.42836       20.11008       -0.834
       26.52380       25.93127       19.29229        0.417
       25.59004       26.69005       20.21111        0.417
       14.15900       24.28768        3.06852       -0.834
       13.49033       23.62617        3.24606        0.417
       14.55926       24.45912        3.92094        0.417
        8.00076       23.42156        8.31001       -0.834
        7.21107       23.33030        7.77681        0.417
        7.95447       24.31248        8.65692        0.417
       12.90435        9.93412       14.71080       -0.834
       12.53149        9.05743       14.80368        0.417
       12.89617       10.09975       13.76807        0.417
       16.86826        3.57662        9.50102       -0.834
       16.17421        3.45640        8.85290        0.417
       17.48312        2.86339        9.32931        0.417
       11.48782       16.21447       22.87530       -0.834
       12.05713       16.97758       22.97417        0.417
       11.98864       15.49099       23.25210        0.417
       20.43110        6.17982       13.65204       -0.834
       21.22954        6.20152       13.12455        0.417
       20.73892        6.24422       14.55610        0.417
       13.38057       27.03137       18.42442       -0.834
       14.23984       27.36016       18.68860        0.417
       13.57328       26.31692       17.81725        0.417
       15.05107       25.39640       25.78133       -0.834
       15.41444       25.20985       26.64701        0.417
       14.61092       24.58566       25.52601        0.417
       22.98345       29.19719       18.24226       -0.834
       22.85698       28.44851       17.65941        0.417
       22.17039       29.25030       18.74459        0.417
       16.30951       13.70017       23.08809       -0.834
       16.88434       13.83266       22.33427        0.417
       15.62148       13.11793       22.76583        0.417
       27.20470       17.90625       19.07462       -0.834
       26.65379       18.31117       19.74452        0.417
       28.03331       17.72944       19.52001        0.417
       15.16041        5.88300       19.28574       -0.834
       14.99364        6.03846       18.35608        0.417
       14.43901        6.32265       19.73576        0.417
       21.90059       23.07574        6.24120       -0.834
       22.68662       22.94302        5.71132        0.417
       22.10895       23.82785        6.79541        0.417
       22.25585       17.87395        7.07259       -0.834
       21.95462       18.38227        6.31953        0.417
       22.90988       18.43233        7.49293        0.417
       18.93771       22.72626       27.20823       -0.834
       19.69782       22.90886       26.65585        0.417
       18.92453       23.44276       27.84280        0.417
        3.80628       12.71773       18.30382       -0.834
        3.63165       11.77887       18.23844        0.417
        3.61789       13.05834       17.42933        0.417
       23.67528       11.65920        8.09623       -0.834
       23.54046       12.03069        8.96803        0.417
       24.11095       12.35480        7.60371        0.417
       20.10905       24.47477       23.73761       -0.834
       19.59057       23.84800       23.23307        0.417
       20.85937       23.96913       24.04999        0.417
       18.50070       16.53216       30.85161       -0.834
       19.42001       16.31038       30.70357        0.417
       18.50335       17.03538       31.66585        0.417
        9.94052        6.16229       10.57590       -0.834
        9.29807        6.84093       10.78314        0.417
       10.13942        6.29511        9.64907        0.417
       15.65011       10.09820        3.10802       -0.834
       16.37833        9.80716        3.65685        0.417
       14.90127        9.58449        3.41065        0.417
        7.24638       19.11212       22.59461       -0.834
        7.19565       18.50621       23.33389        0.417
        6.96255       18.59513       21.84069        0.417
       20.53154       13.20116       14.09977       -0.834
       21.27513       13.68248       13.73696        0.417
       20.38596       13.59663       14.95922        0.417
       20.04719       25.16988        7.59674       -0.834
       19.12640       25.00286        7.79795        0.417
       20.10714       25.07012        6.64664        0.417
        9.62449        7.88398       26.87542       -0.834
        9.75915        8.69779       26.38982        0.417
       10.33936        7.86303       27.51162        0.417
        9.70372       24.80226       16.40064       -0.834
       10.30497       25.38907       15.94197        0.417
       10.25112       24.06852       16.68030        0.417
       23.07976       23.57386       22.96337       -0.834
       22.99042       24.51353       23.12235        0.417
       22.61384       23.42428       22.14071        0.417
       13.91511       22.66648       29.34647       -0.834
       13.21811       23.16146       28.91587        0.417
       14.57911       22.54674       28.66751        0.417
       11.10443       13.48245       19.69929       -0.834
       10.93803       14.34912       20.07000        0.417
       10.85217       12.87246       20.39249        0.417
       10.10964        5.09131       19.01935       -0.834
        9.84636        4.50033       19.72479        0.417
        9.59535        5.88504       19.16672        0.417
       19.79157        9.21901       15.85601       -0.834
       20.55056        9.58629       16.30907        0.417
       19.96320        8.27785       15.82444        0.417
       16.03937       14.00553       10.69304       -0.834
       16.32802       14.76974       10.19415        0.417
       16.84686       13.53504       10.89998        0.417
       10.02782       20.07595       16.88788       -0.834
       10.18905       21.01453       16.98435        0.417
        9.07403       19.99525       16.88591        0.417
       25.92392       10.59706       12.20615       -0.834
       25.98976       10.49486       13.15559        0.417
       25.09255       11.05175       12.07080        0.417
       13.92875       24.81709       16.55090       -0.834
       14.21201       23.90309       16.52641        0.417
       13.96153       25.10304       15.63800        0.417
       11.99627       10.73669        4.47983       -0.834
       12.64960       10.04167        4.40020        0.417
       12.03703       11.00019        5.39914        0.417
       14.42821        7.53687       22.09074       -0.834
       14.31819        7.98281       21.25094        0.417
       14.60846        8.24043       22.71424        0.417
       25.05815       12.74816        5.71642       -0.834
       24.50051       12.35079        5.04757        0.417
       25.94747       12.49527        5.46866        0.417
       26.57617       23.55538       13.07069       -0.834
       25.72410       23.33564       12.69397        0.417
       27.21186       23.21502       12.44118        0.417
        4.16807        9.36143       12.92038       -0.834
        4.59467        9.09545       13.73494        0.417
        3.35438        9.78009       13.20122        0.417
       30.69047       18.86607       19.36659       -0.834
       31.59096       18.70816       19.65016        0.417
       30.74242       18.90194       18.41148        0.417
        2.69545       17.79983       20.24138       -0.834
        1.85694       18.11809       19.90695        0.417
        2.97730       17.14712       19.60048        0.417
        3.36450       20.66293       19.73496       -0.834
        3.58194       19.95483       20.34121        0.417
        3.67542       20.35419       18.88393        0.417
       18.56883       15.45723        4.87345       -0.834
       19.04600       15.67174        5.67503        0.417
       17.90379       14.82735        5.15133        0.417
        6.36331       12.26721        8.49270       -0.834
        5.59118       12.32245        7.92967        0.417
        6.51553       13.16742        8.78026        0.417
       24.39510        8.08812       16.28410       -0.834
       24.36991        7.17026       16.55452        0.417
       23.49040        8.38864       16.37039        0.417
        7.98969       13.06522       25.24167       -0.834
        7.63536       12.33724       24.73106        0.417
        7.84975       12.80940       26.15338        0.417
       15.37069        9.62969       18.58957       -0.834
       15.10075        8.80445       18.18666        0.417
       15.55096       10.21012       17.85008        0.417
       17.83808       23.04961        5.65379       -0.834
       18.17380       22.60440        4.87577        0.417
       18.29632       22.63435        6.38441        0.417
       12.36571       15.40778       12.71464       -0.834
       11.65038       15.29095       12.08943        0.417
       11.93695       15.70545       13.51700        0.417
       10.84155       12.59766        2.70020       -0.834
       10.36488       13.08925        3.36904        0.417
       11.48539       12.08694        3.19097        0.417
       17.06194        8.49045       15.39157       -0.834
       16.78374        8.58574       14.48066        0.417