%Nproc=32
%Mem=120Gb
%chk=temp.chk
#p cam-b3lyp/6-31+G(d,p) nosymm charge Freq 

Calculation for S0 with freq for abs spect

0  1
 C         15.32771       16.06662       16.52337
 C         17.22393       16.94316       15.31956
 C         17.87876       17.18596       16.47450
 C         17.32480       16.80785       17.79871
 N         16.03271       16.33882       17.63957
 H         17.60726       17.18119       14.27627
 H         18.86319       17.68956       16.44003
 O         17.83757       16.91105       18.87452
 O         14.28759       15.46122       16.47839
 N         15.98234       16.32281       15.32776
 H         15.48621       16.10381       14.50227
 H         15.60087       16.09341       18.52278
 O         20.67225       16.87464       18.32194
 H         21.09279       17.25625       17.55139
 H         19.77158       17.19696       18.28813
 O         17.19097       12.88611       15.40636
 H         16.77451       12.60366       14.59210
 H         16.85492       12.28317       16.06951
 O         18.46917       20.18574       13.92525
 H         17.52774       20.20933       14.09664
 H         18.87259       20.33598       14.78018
 O         14.09258       19.03482       16.20873
 H         14.63457       19.59579       15.65395
 H         13.59383       18.49806       15.59280
 O         15.97130       19.71370       18.17219
 H         15.18593       19.28864       17.82758
 H         16.09975       20.47525       17.60671
 O         15.90497       16.86858       21.88716
 H         15.90033       16.18685       22.55906
 H         15.50315       16.45518       21.12304
 O         12.79739       13.60360       17.65790
 H         13.37684       12.96464       18.07286
 H         13.38665       14.27791       17.31979
 O         20.23249       14.95445       20.12963
 H         20.40875       15.75581       19.63670
 H         20.33025       14.25132       19.48754
 O         17.59990       13.90538       20.01983
 H         18.14644       14.67092       20.19725
 H         18.04564       13.45308       19.30360
 O         15.03070       12.81778       19.41394
 H         14.69900       12.69535       20.30344
 H         15.92133       13.14760       19.53320
 O         12.23194       17.09277       14.86679
 H         12.31814       16.51616       15.62596
 H         11.31071       17.35272       14.86625
 O         20.16694       12.68487       18.22800
 H         21.07201       12.37532       18.26354
 H         20.11600       13.18447       17.41311
 O         15.62246       20.14848       14.20608
 H         15.36611       19.79694       13.35347
 H         15.54744       21.09755       14.10675
 O         18.94294       18.10972       21.22064
 H         18.37782       17.44842       20.82119
 H         19.49788       17.61745       21.82557
 O         15.13525       18.44804       12.05324
 H         15.75203       17.83142       11.65879
 H         14.37746       17.91242       12.28798
 O         15.44226       19.62603       21.02692
 H         15.54892       18.69527       21.22326
 H         15.60092       19.69238       20.08530
 O         21.40059       17.87979       15.97218
 H         20.76452       18.59020       16.05558
 H         21.65675       17.89406       15.05000
 O         18.92488       20.12066       18.66525
 H         17.96921       20.11255       18.71870
 H         19.20974       19.54232       19.37279
 O         19.92586       20.43234       16.29311
 H         20.64780       21.06059       16.27497
 H         19.68239       20.37314       17.21693
 O         14.47339       15.38916       19.99323
 H         14.73084       14.61816       19.48775
 H         13.59442       15.18447       20.31221
 O         19.81938       12.83710       15.15569
 H         19.92123       11.93528       15.45998
 H         18.87554       12.99422       15.18232
 O         11.80441       17.27907       17.60481
 H         12.21543       17.83091       18.27022
 H         12.39603       16.53214       17.51359
 
       23.86854        6.97085       15.26713       -0.834
       23.06944        6.63023       14.86506        0.417
       24.41519        7.23594       14.52745        0.417
       12.26162        5.37775       23.09985       -0.834
       11.32623        5.58084       23.09392        0.417
       12.58322        5.70332       22.25914        0.417
       26.20203        9.02071       16.12270       -0.834
       26.35844        8.16688       16.52611        0.417
       25.47655        9.39353       16.62361        0.417
       25.92956       15.13632       23.60136       -0.834
       26.12337       14.54112       22.87720        0.417
       26.09875       14.61920       24.38888        0.417
       15.95289       20.67219       26.71581       -0.834
       15.66465       21.30987       26.06272        0.417
       16.42703       21.19144       27.36527        0.417
       23.45067       11.02697       29.23012       -0.834
       23.33763       10.55634       28.40431        0.417
       23.47170       11.95044       28.97912        0.417
       22.33014       11.05327        8.34198       -0.834
       21.43563       10.71556        8.38711        0.417
       22.58130       10.94564        7.42461        0.417
        6.28531       22.83457       15.79578       -0.834
        6.86217       23.20270       16.46507        0.417
        5.46173       23.31105       15.90032        0.417
        7.78280        8.64701       13.57431       -0.834
        7.36937        8.07996       14.22528        0.417
        8.56792        8.97930       14.00951        0.417
       27.07311        6.65209       17.48946       -0.834
       27.17564        5.90114       18.07409        0.417
       27.96493        6.86692       17.21608        0.417
       17.45563       16.89863        5.88621       -0.834
       17.80893       16.30094        5.22728        0.417
       18.13107       16.93559        6.56345        0.417
       19.02987       11.27438       27.40752       -0.834
       18.61970       10.66335       28.01960        0.417
       19.77244       11.63627       27.89110        0.417
       16.06896        9.02421       16.24119       -0.834
       15.67154        9.39499       15.45327        0.417
       16.27210        9.78345       16.78755        0.417
       26.43203       12.18647        8.06568       -0.834
       27.09792       11.85535        8.66833        0.417
       25.68037       12.38497        8.62410        0.417
       22.47773        7.26469        9.64130       -0.834
       22.80970        6.69414       10.33447        0.417
       21.79536        6.74867        9.21197        0.417
       20.67188       28.94666        8.35202       -0.834
       21.46711       29.41622        8.10034        0.417
       20.98454       28.20768        8.87393        0.417
       19.09720       10.70392       11.06352       -0.834
       18.15525       10.53715       11.02954        0.417
       19.17413       11.65677       11.01471        0.417
       15.47978       25.50498       24.25609       -0.834
       14.55645       25.35066       24.45579        0.417
       15.82612       24.63961       24.03837        0.417
       12.98343        8.59741        7.04523       -0.834
       12.51854        7.76410        6.96968        0.417
       13.24446        8.64407        7.96496        0.417
       21.58893       24.81855       15.53869       -0.834
       21.22406       23.94820       15.69864        0.417
       21.73087       25.18350       16.41213        0.417
       11.22449       11.94765       26.27065       -0.834
       11.09591       12.52114       25.51513        0.417
       10.36612       11.55121       26.41986        0.417
       17.01827       22.63863        9.29962       -0.834
       16.71716       23.53198        9.13380        0.417
       17.39580       22.35424        8.46726        0.417
       25.07472       13.42588       14.12867       -0.834
       25.78688       13.70913       13.55523        0.417
       25.38090       13.63273       15.01168        0.417
       23.27891        8.10392       12.68768       -0.834
       22.46066        8.58562       12.56665        0.417
       23.85777        8.72232       13.13347        0.417
       17.27794       29.99760       15.80739       -0.834
       16.85361       29.70662       15.00023        0.417
       16.60921       29.88731       16.48331        0.417
       16.31586       10.89714        5.22366       -0.834
       15.76508       10.65124        4.48042        0.417
       17.21129       10.82387        4.89341        0.417
        4.61867       14.99778       11.15368       -0.834
        4.31670       15.17686       10.26319        0.417
        4.29817       15.73790       11.66917        0.417
       13.32657       20.56140        9.58234       -0.834
       12.52480       20.73089        9.08769        0.417
       14.01735       20.54096        8.92005        0.417
       19.59538        6.26851       20.49618       -0.834
       18.82602        6.71379       20.85121        0.417
       20.33697        6.79255       20.79895        0.417
       26.08231        7.97199       13.59360       -0.834
       26.32852        8.59316       14.27899        0.417
       26.91201        7.72189       13.18705        0.417
       16.86643       26.64047        6.24244       -0.834
       16.18734       26.00406        6.46619        0.417
       17.68972       26.17796        6.39898        0.417
       22.88419       13.51928       17.55540       -0.834
       22.95559       14.28341       16.98336        0.417
       23.59312       13.62708       18.18945        0.417
       18.08726       23.24416        3.32327       -0.834
       18.75610       23.57665        3.92189        0.417
       18.27232       23.67936        2.49105        0.417
       22.47549        4.70832       11.85125       -0.834
       22.25686        5.22093       12.62950        0.417
       23.36005        4.99060       11.61864        0.417
       21.47219       21.29165       10.34222       -0.834
       20.54808       21.32462       10.58956        0.417
       21.81424       22.15442       10.57646        0.417
       24.06556        7.62385       19.87931       -0.834
       23.85633        7.19341       19.05035        0.417
       23.29616        7.47370       20.42858        0.417
       23.94325        5.84978       17.65645       -0.834
       23.76216        6.03468       16.73491        0.417
       24.85525        6.11316       17.77935        0.417
        6.99451       10.99785        9.95249       -0.834
        6.78083       10.34853        9.28245        0.417
        6.49871       10.71998       10.72270        0.417
        5.32640       15.33773       24.67283       -0.834
        5.60923       14.81052       23.92565        0.417
        4.65206       15.91629       24.31678        0.417
       20.83007       24.25323       23.73937       -0.834
       20.89959       23.32391       23.52085        0.417
       20.20922       24.28280       24.46731        0.417
        9.25114       28.58931       11.57926       -0.834
        9.48240       27.79831       12.06617        0.417
       10.09173       28.99607       11.36903        0.417
       11.18741       24.86669       14.44377       -0.834
       10.77522       24.03873       14.69037        0.417
       11.41010       25.28150       15.27719        0.417
        5.22410       20.90366       13.26107       -0.834
        5.85953       21.40798       13.76912        0.417
        4.44367       20.87397       13.81449        0.417
       10.06517        8.54726        7.80021       -0.834
       10.81136        9.14529        7.75791        0.417
       10.40520        7.71554        7.47027        0.417
       28.86602       25.49499       18.74228       -0.834
       28.13977       25.05457       19.18368        0.417
       29.40508       24.78279       18.39818        0.417
       23.67702       16.10665        7.63061       -0.834
       23.73556       16.34668        6.70584        0.417
       23.14797       15.30898        7.63848        0.417
       13.95389       14.03961       12.88868       -0.834
       14.00525       14.67202       12.17198        0.417
       14.64590       13.40589       12.69960        0.417
       13.06036        6.22494       20.29289       -0.834
       12.24287        6.67454       20.07889        0.417
       13.08015        5.47002       19.70472        0.417
        2.93493       15.85139       20.42248       -0.834
        3.79807       15.83658       20.00897        0.417
        2.73820       14.93166       20.60030        0.417
       19.84758        4.34768       10.81768       -0.834
       20.76684        4.60985       10.76808        0.417
       19.74480        3.99940       11.70333        0.417
       30.27063       23.34924       17.60821       -0.834
       29.88019       22.51190       17.35792        0.417
       31.10060       23.37884       17.13228        0.417
        9.77490        3.90735       20.33109       -0.834
        8.83211        3.80921       20.19783        0.417
        9.93812        3.51528       21.18892        0.417
       26.23139       16.73526       14.85974       -0.834
       27.11650       16.90076       14.53504        0.417
       25.66679       16.87544       14.09961        0.417
       14.44931       16.58081       26.23696       -0.834
       14.97358       17.20635       25.73688        0.417
       13.55458       16.71287       25.92350        0.417
       17.40601       20.56289        3.17588       -0.834
       16.53358       20.48743        3.56241        0.417
       17.52932       21.50283        3.04343        0.417
        9.52203       23.54838       24.66822       -0.834
       10.33733       23.97962       24.41219        0.417
        8.95717       24.26103       24.96705        0.417
       21.53592       23.80836        7.40614       -0.834
       22.13802       23.10538        7.16214        0.417
       22.00580       24.61328        7.18807        0.417
        8.67091       11.44319       26.65750       -0.834
        7.90589       10.99621       27.01970        0.417
        8.33589       12.28875       26.35914        0.417
        9.80556       22.69509       15.60188       -0.834
       10.04418       21.83997       15.95974        0.417
        9.16413       23.04380       16.22092        0.417
       10.32067       29.75238       20.36434       -0.834
        9.93709       28.93032       20.66980        0.417
       11.23074       29.71659       20.65884        0.417
       19.75185        4.36995       18.43983       -0.834
       19.74547        4.93006       19.21602        0.417
       20.65554        4.06132       18.37401        0.417
       18.26268        2.62324       16.91929       -0.834
       18.88615        3.34313       16.82295        0.417
       18.78812        1.89277       17.24572        0.417
       21.80804       23.91909       19.80785       -0.834
       21.82204       23.19401       19.18311        0.417
       20.91831       23.91460       20.16081        0.417
       15.85047        2.68244       18.08449       -0.834
       16.09580        2.98644       18.95835        0.417
       16.68376        2.56699       17.62784        0.417
        8.68439       11.63296       22.98172       -0.834
        8.31193       11.24122       22.19176        0.417
        8.99902       10.88787       23.49366        0.417
       12.11191       17.19638        5.38614       -0.834
       13.03613       17.44533        5.37695        0.417
       11.75223       17.63735        6.15582        0.417
       14.82949       14.34060       10.12164       -0.834
       14.70083       13.44737        9.80254        0.417
       14.86126       14.87635        9.32905        0.417
       25.44158       17.53466       27.07974       -0.834
       25.16584       16.72937       27.51758        0.417
       26.23927       17.29134       26.60994        0.417
        4.93324       10.64670       18.05484       -0.834
        4.00382       10.57608       17.83707        0.417
        5.05984       10.02450       18.77113        0.417
       19.61428        7.38707       13.27647       -0.834
       19.26460        7.20873       12.40346        0.417
       20.05628        8.23170       13.19002        0.417
       25.73467       17.48486       12.15919       -0.834
       24.92505       17.88516       11.84217        0.417
       26.02714       16.92994       11.43617        0.417
       23.96156       15.88596       16.43092       -0.834
       23.12548       16.31979       16.26067        0.417
       24.52577       16.16006       15.70789        0.417
       21.77132       19.96601       19.61328       -0.834
       22.35708       20.16594       20.34345        0.417
       21.46428       19.07650       19.78856        0.417
        6.30941        6.72580       16.62358       -0.834
        6.27644        5.96166       17.19911        0.417
        6.53331        6.36928       15.76393        0.417
       10.68405       17.48113        9.85905       -0.834
       10.80131       16.90250       10.61248        0.417
       10.62068       18.35805       10.23749        0.417
       28.64782       22.20348       22.02816       -0.834
       29.28223       22.91463       21.93862        0.417
       29.16991       21.40495       21.95070        0.417
       26.77436        8.37649       19.98939       -0.834
       27.25661        7.66017       19.57639        0.417
       25.87652        8.05219       20.05968        0.417
       13.71072        8.79140        9.59564       -0.834
       13.49540        8.65068       10.51763        0.417
       14.52372        8.30415        9.46199        0.417
       13.41040        3.87760       18.96679       -0.834
       14.07390        3.70160       18.29969        0.417
       12.64941        3.36789       18.68873        0.417
       25.41096        9.13614       22.16080       -0.834
       24.52399        9.02236       21.81940        0.417
       25.92197        9.43201       21.40743        0.417
        3.33003       18.44240       16.66783       -0.834
        4.03906       18.19118       16.07588        0.417
        3.77406       18.81422       17.42995        0.417
       17.15062       27.40531       25.67315       -0.834
       16.40911       26.85533       25.42036        0.417
       17.44352       27.80459       24.85399        0.417
       16.39788       11.17951        7.93595       -0.834
       16.30748       11.24158        6.98505        0.417
       17.26642       10.80022        8.07019        0.417
       16.08833       22.65953       23.90492       -0.834
       15.94947       22.74219       22.96146        0.417
       15.24364       22.36684       24.24708        0.417
       14.08859       15.21235       23.64771       -0.834
       13.94965       14.26936       23.55997        0.417
       14.98666       15.29376       23.96875        0.417
        7.55442       14.22204       11.30020       -0.834
        6.73107       14.38359       10.83950        0.417
        8.09799       13.75687       10.66429        0.417
       15.38496        4.14315       10.73682       -0.834
       16.21772        3.87214       10.35042        0.417
       15.63296        4.65729       11.50518        0.417
       23.57324       28.65059       10.10297       -0.834
       23.52800       27.69491       10.07346        0.417
       24.24841       28.83886       10.75484        0.417
        5.26446       21.95172       18.66105       -0.834
        6.11223       22.35658       18.84438        0.417
        4.86779       22.51562       17.99705        0.417
        7.27914        6.27064        9.72013       -0.834
        8.15366        6.04186        9.40532        0.417
        7.42506        6.99466       10.32901        0.417
        9.56859       17.67258       14.90525       -0.834
        9.20687       17.27885       14.11129        0.417
        8.98658       18.40850       15.09478        0.417
       15.06394       24.97973       12.48680       -0.834
       14.53649       24.27246       12.11559        0.417
       15.48912       25.38431       11.73065        0.417
       10.66904       26.25371       23.91451       -0.834
       11.39517       26.02426       24.49444        0.417
       10.21334       26.96208       24.36924        0.417
        6.24340       21.91794       24.52862       -0.834
        6.59759       21.97386       25.41612        0.417
        6.11469       20.98112       24.38018        0.417
       14.26943       17.23599        3.31447       -0.834
       14.47602       16.78472        4.13294        0.417
       13.37596       16.96154        3.10801        0.417
       16.41119       11.23115       17.60225       -0.834
       15.82643       11.78637       18.11802        0.417
       17.09320       10.96349       18.21825        0.417
       15.26030       12.31297       29.22423       -0.834
       15.68549       12.34168       28.36713        0.417
       14.32353       12.31356       29.02755        0.417
        7.92938       11.73073       15.15076       -0.834
        8.83783       11.43319       15.10150        0.417
        7.41103       10.92715       15.10848        0.417
       18.60066       21.83112       24.35134       -0.834
       18.46995       21.00328       23.88893        0.417
       17.78127       22.30921       24.22382        0.417
       14.61051       24.20056       30.00949       -0.834
       15.21389       23.56046       29.63210        0.417
       15.13463       24.67152       30.65735        0.417
       11.02498       15.23827       11.88648       -0.834
       10.21669       15.29715       12.39583        0.417
       11.22434       14.30244       11.86002        0.417
        6.14641       10.84189       12.42260       -0.834
        6.32183       10.16046       13.07154        0.417
        5.65612       11.50956       12.90225        0.417
       15.57503       25.11679        9.38293       -0.834
       15.73673       26.05781        9.45046        0.417
       15.59436       24.93681        8.44300        0.417
       10.80634       18.70883        7.12972       -0.834
        9.89086       18.98163        7.06881        0.417
       10.91218       18.42470        8.03763        0.417
       28.75466       11.26209       21.99615       -0.834
       29.62274       11.64824       22.11261        0.417
       28.50442       10.96581       22.87126        0.417
        7.69651       21.72718       26.95980       -0.834
        7.44977       20.93142       27.43111        0.417
        8.24692       21.41883       26.23994        0.417
       26.32289       12.73199       22.18458       -0.834
       27.13169       12.23665       22.05532        0.417
       25.66078       12.06617       22.37036        0.417
        8.35477        8.59447       10.82299       -0.834
        7.96395        8.71181       11.68886        0.417
        8.62030        9.47516       10.55819        0.417
        9.33872        9.24978       25.09075       -0.834
        9.96336        8.89655       25.72422        0.417
        9.07800       10.09504       25.45654        0.417
       11.19591       15.13446       20.88206       -0.834
       10.78304       15.08209       20.02006        0.417
       11.19156       14.23353       21.20537        0.417
       17.12891       23.56415       18.92925       -0.834
       17.09564       24.39419       18.45368        0.417
       16.86944       22.90699       18.28345        0.417
       20.90616       17.29286       27.15175       -0.834
       20.52287       17.45828       28.01311        0.417
       21.14692       18.16000       26.82566        0.417
       12.30714       12.23226       14.01621       -0.834
       12.60542       12.11897       14.91867        0.417
       12.94273       12.83291       13.62699        0.417
        2.18217       19.81146       19.89301       -0.834
        2.78264       19.80351       20.63840        0.417
        2.33368       18.97455       19.45386        0.417
       12.11528       17.13191       22.81941       -0.834
       11.76939       16.65901       22.06247        0.417
       12.76672       16.53975       23.19517        0.417
       23.81844       11.55818       23.19271       -0.834
       23.38017       12.39764       23.05323        0.417
       23.18335       10.90439       22.90040        0.417
       25.50524       10.02304       25.34179       -0.834
       24.67418        9.98215       25.81497        0.417
       25.26375        9.91034       24.42243        0.417
        8.60394       12.59007       18.31276       -0.834
        7.73227       12.73627       18.68025        0.417
        8.44509       12.39109       17.39005        0.417
       11.55735       21.48151       22.65202       -0.834
       11.26502       20.58705       22.82731        0.417
       10.78680       21.91928       22.29030        0.417
        8.96555       26.42299       15.92786       -0.834
        8.88192       25.94028       15.10552        0.417
        9.88806       26.33236       16.16658        0.417
       20.75059       23.71468       29.20838       -0.834
       20.26707       24.18502       28.52925        0.417
       21.66889       23.92425       29.03797        0.417
        8.53784       15.93937       28.24299       -0.834
        8.76436       15.18215       28.78293        0.417
        8.88979       15.73093       27.37759        0.417
        6.80993       14.66725       20.48282       -0.834
        7.37557       15.26262       19.99105        0.417
        6.31332       14.19895       19.81177        0.417
        6.74174       27.98077       15.88328       -0.834
        7.65441       27.69879       15.82187        0.417
        6.58289       28.07674       16.82232        0.417
       27.41595       19.69912       12.15249       -0.834
       28.28313       19.53724       11.78098        0.417
       26.99405       18.83995       12.16038        0.417
       14.33300       18.78260       28.20877       -0.834
       14.31445       17.93045       27.77320        0.417
       14.69929       19.37829       27.55516        0.417
       23.92241       19.56719       11.11553       -0.834
       23.03243       19.91688       11.07232        0.417
       24.15192       19.38186       10.20492        0.417
        4.62457       21.40721       10.51885       -0.834
        4.94838       21.41063       11.41961        0.417
        4.33700       22.30693       10.36379        0.417
       22.04433        8.07592       16.76488       -0.834
       21.32469        7.69107       16.26465        0.417
       22.83363        7.81007       16.29313        0.417
       29.81137       19.60042       10.10066       -0.834
       30.25460       20.03373        9.37127        0.417
       29.30983       18.89507        9.69179        0.417
       12.66661       12.66335       28.79908       -0.834
       12.39531       12.28113       27.96449        0.417
       11.89167       12.59628       29.35694        0.417
       17.73682        3.24104        9.58982       -0.834
       18.61783        3.32684        9.95410        0.417
       17.84603        2.66967        8.82967        0.417
       13.30714       22.41048       14.39152       -0.834
       13.37880       22.00367       13.52804        0.417
       12.94594       23.27977       14.21803        0.417
       29.15485       17.43730       18.30662       -0.834
       29.88211       17.18915       17.73589        0.417
       29.57351       17.72007       19.11964        0.417
       26.14860       13.10309       16.97483       -0.834
       27.08948       12.97043       16.85919        0.417
       26.07492       13.97617       17.36023        0.417
       16.54710        4.00915       20.56788       -0.834
       17.10194        4.44035       21.21784        0.417
       16.28229        3.18908       20.98455        0.417
       15.14231       26.75164       14.73626       -0.834
       14.72144       26.05916       14.22677        0.417
       16.07902       26.62525       14.58514        0.417
       15.08424       20.29737        4.95298       -0.834
       14.32143       20.24314        4.37729        0.417
       14.92405       19.63637        5.62652        0.417
       31.45934       14.77336       19.80937       -0.834
       30.91161       14.19047       19.28357        0.417
       32.26232       14.87405       19.29817        0.417
       19.41684        7.11869       15.85968       -0.834
       19.22831        7.16118       14.92219        0.417
       18.63248        6.72787       16.24473        0.417
       26.71013       25.08563       14.72464       -0.834
       26.72943       24.30331       15.27585        0.417
       27.38103       24.92781       14.06040        0.417
        9.38263       19.78574       17.10833       -0.834
       10.33232       19.86441       17.01817        0.417
        9.21770       19.92539       18.04082        0.417
       26.71499        6.84398       23.56186       -0.834
       26.10504        6.12879       23.74265        0.417
       26.15434        7.58647       23.33689        0.417
       28.52391       10.55551       19.40845       -0.834
       28.65562       10.91822       20.28442        0.417
       28.00075        9.76679       19.55145        0.417
       13.88678       16.81263       31.30505       -0.834
       13.18741       17.46462       31.26012        0.417
       13.79979       16.31111       30.49441        0.417
       10.98212       27.05563       20.73903       -0.834
       11.82084       27.36371       20.39571        0.417
       11.13875       26.92591       21.67438        0.417
       24.14519       10.51944       17.27745       -0.834
       24.53121       11.38909       17.17292        0.417