%Nproc=32
%Mem=120Gb
%chk=temp.chk
#p cam-b3lyp/6-31+G(d,p) nosymm charge Freq 

Calculation for S0 with freq for abs spect

0  1
 C         15.33869       16.61115       16.78041
 C         17.38339       15.77770       15.79773
 C         18.16183       16.57823       16.59468
 C         17.52570       17.59590       17.35740
 N         16.15558       17.51812       17.43383
 H         17.87871       15.07382       15.20765
 H         19.18525       16.54543       16.50880
 O         18.09951       18.38808       18.08640
 O         14.10880       16.55427       16.84825
 N         16.01844       15.68300       16.01290
 H         15.47041       14.90596       15.62697
 H         15.69231       18.19837       17.98253
 O         20.94209       14.74127       14.97681
 H         21.35169       15.27132       15.66055
 H         21.67677       14.35216       14.50238
 O         13.98571       14.15521       14.26166
 H         13.98451       14.09324       13.30647
 H         13.70840       15.05298       14.44426
 O         15.63625       20.23018       15.12763
 H         14.74241       19.91162       15.25334
 H         15.92203       19.82610       14.30831
 O         18.20380       20.91075       15.64964
 H         17.38377       20.51828       15.35008
 H         18.85033       20.21003       15.56467
 O         18.84900       20.48595       19.72073
 H         18.59382       20.21192       18.83980
 H         19.68033       20.94431       19.59810
 O         12.25173       16.46324       14.48823
 H         11.98094       16.55521       15.40171
 H         12.46045       17.35466       14.20889
 O         15.15824       21.21869       17.98107
 H         15.83907       21.85011       18.21346
 H         15.52534       20.73024       17.24426
 O         20.33955       17.60940       19.32025
 H         19.44014       17.86650       19.11730
 H         20.86479       18.00364       18.62388
 O         17.91740       13.66783       13.09767
 H         17.22038       13.30021       12.55429
 H         17.83162       14.61504       12.98962
 O         13.09488       16.11322       19.98127
 H         13.26986       16.24848       20.91257
 H         13.70697       16.69813       19.53465
 O         21.43195       18.94792       17.08916
 H         22.25247       18.64968       16.69669
 H         20.76166       18.72331       16.44380
 O         19.85173       18.89706       14.37329
 H         20.03939       19.38701       13.57269
 H         20.26745       18.04574       14.23667
 O         19.24427       13.65473       19.85149
 H         19.43796       14.53430       20.17567
 H         18.28836       13.60509       19.84871
 O         16.94416       18.56784       13.32106
 H         16.76228       17.91296       12.64705
 H         17.76766       18.28251       13.71688
 O         14.14583       18.48616       19.39386
 H         13.50949       19.00305       18.89977
 H         14.36217       19.03123       20.15038
 
        6.93587       19.09340       18.27434       -0.834
        7.07739       18.17156       18.05889        0.417
        7.81437       19.47300       18.29344        0.417
        8.83139       13.76314       29.38312       -0.834
        9.12255       13.55168       28.49613        0.417
        8.87842       14.71804       29.42989        0.417
        5.89676       22.16789       12.38656       -0.834
        5.50504       22.30773       11.52450        0.417
        6.15321       21.24568       12.38690        0.417
       13.71065       29.17152       16.61127       -0.834
       12.88142       29.12783       17.08740        0.417
       13.78411       28.32081       16.17869        0.417
       27.84979       10.20371       10.79258       -0.834
       28.16336       11.04713       11.11886        0.417
       27.21100       10.43030       10.11669        0.417
       21.65993        6.60345       25.80350       -0.834
       22.07351        6.09465       25.10613        0.417
       21.12063        5.96918       26.27582        0.417
       25.02601       10.51560        8.28809       -0.834
       24.90328       11.44937        8.11733        0.417
       24.14835       10.14077        8.21433        0.417
        9.51335       22.92153       10.91239       -0.834
        9.91146       23.51115       10.27199        0.417
        9.73233       22.04392       10.59920        0.417
       23.82668       22.98919       20.56651       -0.834
       23.25485       23.44246       19.94700        0.417
       23.41339       23.12610       21.41897        0.417
       24.94150       19.09306        9.80430       -0.834
       25.34918       18.82865        8.97960        0.417
       25.11515       20.03224        9.86757        0.417
        9.81981       13.61600       26.85964       -0.834
       10.76420       13.75039       26.78020        0.417
        9.47585       13.80811       25.98728        0.417
        7.44645       19.16706       26.25738       -0.834
        7.40801       18.24398       26.50772        0.417
        7.70261       19.62271       27.05925        0.417
        5.17170       11.00351        9.56306       -0.834
        4.56577       11.31672        8.89151        0.417
        5.49363       10.16793        9.22492        0.417
       29.95242       19.11629       13.23255       -0.834
       29.27656       19.42579       13.83559        0.417
       30.31304       18.33710       13.65570        0.417
       24.57317       21.50660       15.47234       -0.834
       24.01748       21.53346       16.25126        0.417
       25.19367       22.22499       15.59533        0.417
        7.59610       17.34003        5.66925       -0.834
        7.79118       16.42650        5.46037        0.417
        6.66291       17.34350        5.88228        0.417
       22.87364       10.74170       22.23936       -0.834
       23.72921       10.32215       22.32999        0.417
       22.49509       10.70704       23.11784        0.417
       21.06775       22.98628       19.51988       -0.834
       20.62108       23.37844       20.27016        0.417
       21.36162       22.13167       19.83536        0.417
       10.97102       17.36688       23.50249       -0.834
       10.70143       17.20853       22.59779        0.417
       11.69964       16.76271       23.64502        0.417
       13.52589        9.71240       10.03611       -0.834
       13.14743        9.89725        9.17656        0.417
       14.28438        9.15886        9.85036        0.417
       10.58818       17.05362       18.71231       -0.834
       11.48643       16.75404       18.85245        0.417
       10.50908       17.83752       19.25589        0.417
       25.11702       16.76583       20.02857       -0.834
       25.48752       16.72813       20.91035        0.417
       24.86798       17.68268       19.91191        0.417
       14.38307        8.79903       19.51327       -0.834
       13.70674        8.81545       20.19043        0.417
       13.92538        8.50978       18.72392        0.417
       24.70105       24.44015       26.79781       -0.834
       24.67125       24.29626       27.74366        0.417
       25.35535       23.81752       26.48084        0.417
       12.81356        8.59220       21.95897       -0.834
       13.46229        8.07169       22.43273        0.417
       12.14576        7.95980       21.69373        0.417
       17.93162       25.29673        4.78331       -0.834
       17.38748       24.51054        4.73806        0.417
       17.35083       26.00665        4.50957        0.417
       22.12005       20.60076       20.60198       -0.834
       22.42196       19.86615       20.06773        0.417
       22.92055       20.97444       20.97051        0.417
       17.81684       25.26983       24.36456       -0.834
       16.92223       25.13366       24.05251        0.417
       18.08937       24.41314       24.69324        0.417
       18.65884       26.63698       22.01188       -0.834
       19.18674       27.42579       21.88810        0.417
       18.50992       26.59364       22.95643        0.417
       12.84033       12.01244        4.23733       -0.834
       12.09282       12.39368        4.69790        0.417
       13.45837       12.73710        4.14181        0.417
       27.27282       24.90321       18.07394       -0.834
       26.72983       24.23534       18.49267        0.417
       28.09897       24.87817       18.55673        0.417
       31.05485       19.70363       16.67139       -0.834
       30.80408       19.10992       17.37910        0.417
       31.55313       19.15644       16.06432        0.417
       14.56653        3.32973       12.10442       -0.834
       14.36020        3.17058       11.18337        0.417
       15.15120        4.08752       12.09191        0.417
        7.41675       13.00886       20.47700       -0.834
        6.62506       13.14630       20.99716        0.417
        7.84623       13.86418       20.46306        0.417
       21.95725       21.86826       24.88177       -0.834
       22.36374       21.69006       25.72985        0.417
       21.28253       21.19515       24.79287        0.417
       15.23915       16.42781        2.88774       -0.834
       14.92030       17.22289        3.31483        0.417
       15.85626       16.74148        2.22666        0.417
       22.77172        5.18134       23.90001       -0.834
       23.67362        5.10567       23.58845        0.417
       22.26651        5.40901       23.11952        0.417
       11.70371       17.79463       27.64980       -0.834
       12.24664       18.33752       28.22141        0.417
       10.85319       17.76108       28.08765        0.417
       24.17218       17.35612       29.76974       -0.834
       24.21157       16.42493       29.98782        0.417
       24.93840       17.50551       29.21583        0.417
       29.31398        8.38690       17.13787       -0.834
       29.52041        9.17615       17.63857        0.417
       28.53638        8.02801       17.56539        0.417
        4.25122       25.88937       16.75962       -0.834
        4.84919       25.45654       16.15025        0.417
        4.48747       26.81565       16.71049        0.417
        5.61336       18.60012       14.77973       -0.834
        4.73953       18.51427       15.16089        0.417
        5.47559       19.09665       13.97307        0.417
        8.56903       21.70664        7.49951       -0.834
        7.97715       21.26010        6.89411        0.417
        9.23254       22.10516        6.93633        0.417
       17.27689       21.61123       11.79255       -0.834
       17.99573       21.97256       11.27395        0.417
       17.69294       20.96243       12.36012        0.417
        5.63625       15.24796       14.44956       -0.834
        4.89579       14.70690       14.17531        0.417
        5.42397       15.50879       15.34574        0.417
       15.18250       24.75991       20.65590       -0.834
       15.86474       24.16402       20.34656        0.417
       14.46983       24.18484       20.93452        0.417
        9.28653       20.48812       17.82455       -0.834
        9.99421       20.84754       18.35956        0.417
        9.56097       20.65174       16.92225        0.417
       13.67724       24.07310       27.98557       -0.834
       12.95963       24.65239       28.24186        0.417
       14.34481       24.20575       28.65862        0.417
       11.64230        6.97414       25.66033       -0.834
       11.02685        7.03956       24.93014        0.417
       12.02079        7.85021       25.73439        0.417
       23.08463       24.08192        7.92797       -0.834
       22.20830       23.98625        8.30096        0.417
       23.63985       23.52502        8.47371        0.417
        1.55914       17.61191       13.55649       -0.834
        2.28764       18.22924       13.48999        0.417
        0.90030       17.95209       12.95115        0.417
        9.97118        6.86945        8.07198       -0.834
        9.99450        5.98495        8.43715        0.417
       10.89000        7.13336        8.02347        0.417
       18.06031        6.44740       21.51340       -0.834
       18.59426        6.65530       22.28015        0.417
       17.51290        7.22205       21.38498        0.417
       29.50264       17.77308       20.99996       -0.834
       28.91895       17.94336       21.73925        0.417
       29.36044       18.51093       20.40701        0.417
       10.46476       27.13314       20.56055       -0.834
        9.73410       27.12697       19.94223        0.417
       11.22508       26.88193       20.03611        0.417
        8.99607       24.47784        7.64142       -0.834
        8.78105       25.16898        8.26778        0.417
        8.33627       23.80149        7.79447        0.417
       13.54769       17.89387        4.57638       -0.834
       12.60574       18.06083        4.54355        0.417
       13.63375       17.11032        5.11941        0.417
       22.67068       18.01428        5.84530       -0.834
       22.12191       17.78411        5.09556        0.417
       23.56663       17.95829        5.51310        0.417
       19.57197       27.25565       16.79208       -0.834
       19.84848       26.44239       17.21443        0.417
       18.70291       27.43022       17.15332        0.417
       21.51718        9.81299       19.93734       -0.834
       21.78189       10.38414       20.65842        0.417
       21.68401        8.92710       20.25922        0.417
       24.09982       15.55646       13.60983       -0.834
       24.38078       14.92462       12.94796        0.417
       24.88720       16.06389       13.80673        0.417
       25.37918       17.68897        4.83764       -0.834
       24.98790       17.19779        4.11523        0.417
       25.91656       17.04670        5.30126        0.417
        8.78840        6.53836       18.41521       -0.834
        8.81057        6.82616       17.50257        0.417
        8.17445        5.80401       18.42042        0.417
       18.10044       24.82369       14.87102       -0.834
       18.56918       24.20423       14.31175        0.417
       18.75263       25.48856       15.09198        0.417
       30.82046       16.13968       15.38399       -0.834
       30.74126       15.84080       16.28988        0.417
       30.85099       15.33443       14.86741        0.417
       23.43667       26.52618       22.88911       -0.834
       23.28061       26.44867       21.94790        0.417
       22.59149       26.32326       23.29001        0.417
       16.81832       26.77703       19.83454       -0.834
       16.04390       26.25335       20.04014        0.417
       17.42701       26.59684       20.55096        0.417
       25.13672       10.23140       19.62559       -0.834
       25.10300        9.39983       20.09843        0.417
       25.42651       10.86765       20.27938        0.417
       16.09649       16.54626       30.01198       -0.834
       16.18949       16.28019       29.09721        0.417
       16.43737       17.44033       30.03770        0.417
        8.48829       22.35363       13.30469       -0.834
        8.89331       22.42137       12.44005        0.417
        7.54760       22.33740       13.12844        0.417
       19.62538       17.82934       28.75460       -0.834
       20.09930       17.00454       28.64805        0.417
       18.70412       17.57301       28.79716        0.417
        3.60224       10.55336       19.55001       -0.834
        3.15628       10.10664       20.26959        0.417
        4.51329       10.26793       19.61824        0.417
       30.86361       13.71975       14.34785       -0.834
       31.25667       13.01371       14.86093        0.417
       30.09272       13.32194       13.94326        0.417
       11.92851       21.79906       28.68096       -0.834
       11.30752       21.27815       28.17179        0.417
       12.69104       21.88963       28.10949        0.417
       17.11784       15.92785       23.25729       -0.834
       17.58494       15.73553       24.07035        0.417
       16.66958       15.11076       23.03901        0.417
        7.44617       10.42489       21.69061       -0.834
        7.37185       11.31401       21.34408        0.417
        8.23281       10.07068       21.27592        0.417
       14.04117       14.28265        3.92403       -0.834
       13.15194       14.50003        3.64428        0.417
       14.58328       14.98748        3.56967        0.417
       10.53568       14.16890       21.90917       -0.834
        9.73126       14.67387       22.02815        0.417
       10.86107       14.43497       21.04919        0.417
       25.53048       24.96070        6.80121       -0.834
       24.64798       24.68076        7.04421        0.417
       25.75372       24.41990        6.04363        0.417
       12.18337       23.27293       24.81292       -0.834
       11.34884       22.84271       24.99919        0.417
       12.11808       24.12242       25.24919        0.417
       16.47244       11.89851        8.04480       -0.834
       16.35844       10.95683        8.17314        0.417
       15.82139       12.13105        7.38277        0.417
       19.55055       29.54442       21.73628       -0.834
       19.22512       29.67852       22.62642        0.417
       20.49896       29.65158       21.80881        0.417
       16.95126       19.45608       29.90937       -0.834
       16.99676       19.64394       30.84685        0.417
       17.49102       20.13374       29.50235        0.417
       22.41285       29.52339       11.59575       -0.834
       22.31229       30.47521       11.58322        0.417
       23.19326       29.35754       11.06690        0.417
       12.62185        6.29706        8.87942       -0.834
       13.30793        5.62978        8.89535        0.417
       12.96519        6.98059        8.30398        0.417
       26.28232       17.49040       11.79537       -0.834
       26.45669       18.30727       12.26282        0.417
       25.65006       17.73160       11.11838        0.417
        1.79588       17.39417       18.96869       -0.834
        2.23541       17.06201       18.18592        0.417
        2.12981       18.28532       19.07151        0.417
        7.28961       12.51882       14.66097       -0.834
        6.93236       13.16092       15.27440        0.417
        7.55611       13.03568       13.90067        0.417
       13.61679       22.10738        4.42568       -0.834
       12.68723       22.18091        4.64192        0.417
       13.63180       21.65782        3.58076        0.417
       26.51320       13.10712       25.27363       -0.834
       26.68140       13.43232       24.38922        0.417
       25.85971       12.41773       25.15560        0.417
       21.46713        9.95992       10.27540       -0.834
       22.00654       10.29509        9.55921        0.417
       20.67156       10.49134       10.24566        0.417
       21.37746        6.17911       21.69286       -0.834
       21.51750        5.48498       21.04881        0.417
       20.86478        6.83934       21.22649        0.417
       22.05022       26.74593        7.07084       -0.834
       22.82707       26.59837        7.61025        0.417
       21.52469       25.95412        7.18524        0.417
       13.08694       23.37825       21.64869       -0.834
       12.92197       22.45861       21.85674        0.417
       12.81599       23.85423       22.43371        0.417
       22.51641        6.76778       18.57519       -0.834
       21.77660        6.30953       18.97384        0.417
       22.14165        7.21288       17.81514        0.417
       23.81593       15.54913        7.06077       -0.834
       23.76672       15.24482        7.96697        0.417
       23.12824       16.21142        6.99233        0.417
       17.74691       14.48864        8.36820       -0.834
       17.08349       14.82008        8.97340        0.417
       17.49551       13.57843        8.21153        0.417
       23.13546       14.17375        9.55563       -0.834
       22.69169       14.70710       10.21505        0.417
       23.43055       13.39835       10.03301        0.417
       16.60911        3.47069       17.34507       -0.834
       16.20522        2.92549       16.66989        0.417
       17.48545        3.65886       17.00913        0.417
       18.94978        6.06582       13.28768       -0.834
       18.46407        6.31153       14.07505        0.417
       19.58808        6.76937       13.17013        0.417
        8.04643       16.03093       18.32515       -0.834
        7.83458       16.07555       17.39276        0.417
        8.96308       16.30184       18.37621        0.417
       10.16992        9.00148       28.06363       -0.834
       11.05677        9.36099       28.04135        0.417
        9.68077        9.53008       27.43312        0.417
       26.79317       20.88654       17.45381       -0.834
       26.41955       21.59102       17.98329        0.417
       27.22605       20.31404       18.08712        0.417
       22.65450       14.43954        4.48802       -0.834
       22.14149       13.72660        4.86850        0.417
       23.39668       14.54532        5.08317        0.417
        6.23106       23.70639       15.26098       -0.834
        6.70218       22.98030       15.66972        0.417
        5.77452       23.30909       14.51940        0.417
       21.89186        7.66442        6.84811       -0.834
       21.79282        7.54235        5.90391        0.417
       22.17233        8.57453        6.94432        0.417
       21.60730       21.94040       27.72423       -0.834
       21.43099       21.12389       28.19164        0.417
       22.14220       22.45313       28.33021        0.417
       29.30649        8.14461       14.28409       -0.834
       29.43959        7.73934       15.14099        0.417
       29.13680        9.06640       14.47834        0.417
       18.24456       20.97591        4.93884       -0.834
       17.80566       21.37484        5.69014        0.417
       19.10876       21.38703        4.91964        0.417
       14.15273       19.59498       11.60772       -0.834
       14.97106       19.93727       11.96744        0.417
       13.64048       19.34156       12.37553        0.417
        3.61950       19.57557       18.70214       -0.834
        4.29656       19.55951       18.02576        0.417
        4.08630       19.81243       19.50350        0.417
       25.36287        7.14905       18.25684       -0.834
       24.75811        6.83919       18.93099        0.417
       24.86716        7.81189       17.77607        0.417
       20.08693        7.81085        9.04215       -0.834
       20.79144        7.90642        8.40125        0.417
       20.30110        8.44112        9.72999        0.417
        4.27786       16.38767       25.96000       -0.834
        4.41608       16.53821       25.02487        0.417
        5.15800       16.39105       26.33628        0.417
       19.22516       22.14691        9.85758       -0.834
       19.32477       21.61046        9.07111        0.417
       19.86311       22.85228        9.74933        0.417
        6.29113       15.71631       20.30054       -0.834
        5.50382       15.26061       20.00270        0.417
        6.83055       15.80222       19.51448        0.417
        5.10640       22.34625        9.58544       -0.834
        4.19340       22.56535        9.77163        0.417
        5.28298       22.75404        8.73764        0.417
       12.60657        3.51665       16.26755       -0.834
       12.70895        2.58037       16.09691        0.417
       11.89550        3.78988       15.68793        0.417
       19.32868       12.23338       30.39639       -0.834
       19.43668       13.10273       30.01064        0.417
       18.79213       12.38135       31.17514        0.417
       19.95922        7.53439       19.68655       -0.834
       19.72220        8.45832       19.60643        0.417
       19.13163        7.08924       19.86867        0.417
       26.79135        8.47416       13.18456       -0.834
       27.60036        8.53076       13.69303        0.417
       26.90252        9.11723       12.48432        0.417
       28.35084       10.83280       14.17597       -0.834
       28.53956       11.44291       13.46296        0.417
       28.07112       11.39085       14.90162        0.417
       16.85325       12.49254       10.72093       -0.834
       16.67853       12.10701        9.86240        0.417
       16.48943       13.37618       10.66574        0.417
       28.29564       19.34838       10.58050       -0.834
       28.91065       19.32265       11.31353        0.417
       27.55546       19.86058       10.90611        0.417
       27.93066       18.41699       24.79877       -0.834
       28.46698       18.71886       25.53189        0.417
       27.02918       18.50820       25.10736        0.417
       14.24013        5.69978       15.21169       -0.834
       15.05725        5.60985       14.72134        0.417
       13.84732        4.82728       15.18560        0.417
       13.06814        5.32979       23.07399       -0.834
       13.56054        5.90831       23.65630        0.417
       13.15190        4.46252       23.47029        0.417
       16.42286       27.75133       17.10136       -0.834
       16.61000       27.38558       17.96590        0.417
       15.96807       28.57397       17.28212        0.417
       11.08960       10.78649       14.56603       -0.834
       11.99258       11.10347       14.54683        0.417
       10.67326       11.20210       13.81093        0.417
       22.97494       26.37997       20.32705       -0.834
       22.59458       27.20619       20.02886        0.417
       23.45666       26.04997       19.56857        0.417
       31.12996       15.65492       20.14445       -0.834
       31.92147       16.19317       20.13895        0.417
       30.41123       16.28552       20.18921        0.417
        8.64647       10.73179        8.37674       -0.834
        8.16936       10.89260        7.56265        0.417
        8.04549       10.20941        8.90794        0.417
       17.75650       18.06567        5.68597       -0.834
       18.47634       17.45334        5.53391        0.417
       18.03693       18.87607        5.26070        0.417
       21.17274       17.60547        3.43800       -0.834
       20.67779       16.95973        2.93372        0.417
       21.16460       18.39266        2.89349        0.417
        6.26795        8.63647       23.47776       -0.834
        6.61976        9.17832       22.77145        0.417
        7.00351        8.51840       24.07879        0.417
       13.48544       20.36923       25.12279       -0.834
       12.75091       20.10689       24.56793        0.417
       13.59966       21.30267       24.94426        0.417
       26.89823       15.86098        5.91540       -0.834
       27.61789       15.73555        6.53394        0.417
       26.76294       14.99699        5.52622        0.417
       22.57948       10.25640        7.50280       -0.834
       23.07682       10.35068        6.69040        0.417
       21.71129       10.60123        7.29408        0.417
       27.10842       18.51295       22.38212       -0.834
       26.16221       18.41976       22.49279        0.417
       27.44170       18.64758       23.26927        0.417
       16.82636       28.99865       12.08293       -0.834
       16.68501       28.22695       12.63128        0.417
       17.41456       29.55300       12.59568        0.417
       14.67192       28.97581       20.54619       -0.834
       14.96800       29.86560       20.35427        0.417
       15.47886       28.47358       20.65955        0.417
       15.90598       17.68821       10.67697       -0.834
       15.20622       18.33422       10.77307        0.417
       16.50714       18.07821       10.04236        0.417
       24.38501       22.15356        9.64133       -0.834
       24.17230       22.55744       10.48267        0.417
       25.30753       22.36591        9.49959        0.417
       17.92698       19.47490       25.74961       -0.834
       17.47332       19.20401       24.95146        0.417
       18.84701       19.26875       25.58444        0.417
       12.39067       26.40851       10.86499       -0.834
       11.88104       27.21740       10.91201        0.417
       13.10792       26.54036       11.48498        0.417
       11.32651       14.39062        8.89974       -0.834
       11.48742       14.51298        7.96413        0.417
       10.96076       13.50862        8.96701        0.417
       26.12721       26.23145       21.92216       -0.834
       25.42207       25.76094       22.36672        0.417
       25.80883       26.35145       21.02747        0.417
       28.78924       23.80950       14.20323       -0.834
       29.48555       24.46338       14.14136        0.417
       29.06273       23.23460       14.91803        0.417
       18.60318       15.49104       25.76815       -0.834
       19.14083       14.91449       26.31107        0.417
       18.01973       15.92895       26.38787        0.417
       13.16757       13.96804       11.22029       -0.834
       13.10062       13.03817       11.43730        0.417
       12.39946       14.14353       10.67674        0.417
       16.88524       10.37204       25.71878       -0.834
       17.16721       10.31035       24.80613        0.417
       17.12099        9.52649       26.10048        0.417
       19.78075       12.10561       14.36411       -0.834
       20.24266       12.87122       14.70575        0.417
       19.09718       12.46914       13.80125        0.417
       10.07243       13.12235       12.93874       -0.834