%Nproc=32
%Mem=120Gb
%chk=temp.chk
#p cam-b3lyp/6-31+G(d,p) nosymm charge Freq 

Calculation for S0 with freq for abs spect

0  1
 C         15.74041       17.70235       17.23181
 C         17.72948       17.15387       15.86147
 C         17.45903       15.85096       15.75762
 C         16.19046       15.41172       16.28980
 N         15.42207       16.37551       17.02307
 H         18.61072       17.65032       15.40362
 H         18.18336       15.18723       15.26116
 O         15.84178       14.23723       16.27536
 O         15.13175       18.53092       17.89024
 N         16.92655       17.96662       16.58039
 H         17.30185       18.91418       16.71123
 H         14.54068       15.99621       17.37433
 O         12.92884       16.59097       14.65705
 H         12.74460       16.50449       13.72173
 H         12.93639       15.69149       14.98432
 O         12.81467       15.81532       18.43171
 H         12.15700       16.25169       17.89015
 H         12.49051       15.91168       19.32718
 O         16.96683       18.89596       20.73624
 H         17.28719       18.25999       20.09659
 H         16.01977       18.75865       20.75756
 O         18.96750       12.83430       15.44047
 H         18.40465       12.54783       16.15978
 H         19.05780       12.06091       14.88375
 O         16.70612       21.97454       18.46929
 H         16.97066       21.05849       18.38493
 H         16.11385       21.98503       19.22118
 O         20.45353       14.54908       17.12130
 H         20.35512       13.95938       17.86883
 H         19.97717       14.11836       16.41151
 O         18.42588       16.11790       11.96214
 H         18.21170       15.19059       12.06434
 H         19.31589       16.19787       12.30523
 O         21.25985       18.20683       15.49209
 H         22.21681       18.22303       15.47791
 H         21.04028       17.39018       15.94055
 O         17.97909       15.76952       20.47960
 H         18.23608       15.38419       21.31729
 H         17.05601       15.53614       20.38121
 O         20.00544       16.73605       18.80066
 H         19.23706       16.62492       19.36055
 H         19.97851       15.98740       18.20482
 O         12.94916       19.43605       14.63403
 H         13.78142       19.36450       14.16665
 H         12.63698       18.53419       14.70771
 O         13.44051       20.76447       17.13052
 H         13.87457       20.13665       17.70816
 H         13.06829       20.22860       16.43014
 O         16.31070       22.17521       14.90012
 H         16.44376       21.40311       15.45003
 H         17.11106       22.23955       14.37906
 O         19.19250       19.84307       16.80511
 H         19.49793       20.63023       16.35420
 H         19.91083       19.60924       17.39294
 O         15.46617       19.13084       13.09854
 H         16.28289       19.50736       12.77076
 H         15.54291       18.19453       12.91504
 O         14.18945       17.71040       20.54344
 H         14.12958       17.81045       19.59337
 H         13.37199       17.27845       20.79126
 O         15.13217       15.10543       20.74191
 H         14.90513       16.01230       20.53628
 H         15.17929       15.08063       21.69762
 O         13.93386       13.11516       17.92174
 H         14.70712       13.54144       17.55217
 H         13.47816       13.81212       18.39377
 O         17.99320       13.60182       12.95517
 H         18.38983       13.43503       13.81021
 H         17.77825       12.73266       12.61667
 O         13.03001       13.75584       15.35635
 H         12.64907       13.03013       14.86193
 H         13.09237       13.42835       16.25364
 O         14.91367       14.49752       13.20110
 H         14.50805       13.98673       13.90166
 H         15.84574       14.50575       13.41885
 
       23.95913       22.68709       22.96223       -0.834
       23.43936       22.23506       23.62685        0.417
       23.41527       22.66305       22.17491        0.417
        5.51587       10.86624       19.47667       -0.834
        5.02600       11.12468       18.69599        0.417
        5.04625       11.27813       20.20195        0.417
       11.91007       14.44405       27.73174       -0.834
       11.47848       13.87405       28.36820        0.417
       11.64993       15.32913       27.98708        0.417
        9.90920       11.77066       14.08093       -0.834
        9.51230       12.38957       14.69382        0.417
        9.62596       10.91058       14.39122        0.417
       20.74479       26.95528        9.80138       -0.834
       21.48595       26.55054        9.35070        0.417
       20.72863       26.53552       10.66148        0.417
        7.92649        8.72560       14.91261       -0.834
        7.56566        8.83635       14.03297        0.417
        8.11745        7.78987       14.97762        0.417
       24.87568       21.09223       19.86650       -0.834
       24.76189       21.24051       18.92773        0.417
       24.03770       21.34657       20.25294        0.417
       24.60096       21.13672       16.92459       -0.834
       23.64519       21.09875       16.88875        0.417
       24.89049       20.38015       16.41469        0.417
       18.05919       12.73865       28.63147       -0.834
       17.71992       11.95556       28.19799        0.417
       17.81194       12.63072       29.54987        0.417
       28.37560       18.75463       13.49227       -0.834
       28.54687       18.04905       12.86852        0.417
       28.18852       18.30587       14.31680        0.417
       10.19053       19.93014       15.17760       -0.834
       11.10349       19.67097       15.05283        0.417
        9.96768       20.41424       14.38247        0.417
       12.63427       28.58744        8.86018       -0.834
       12.91709       29.48026        9.05798        0.417
       12.01096       28.68702        8.14060        0.417
       27.12250        8.91137       23.80501       -0.834
       27.01152        9.85867       23.88583        0.417
       26.96337        8.57499       24.68692        0.417
       18.28730        9.61921       25.94097       -0.834
       17.52191        9.69525       26.51073        0.417
       18.71374       10.47436       25.99652        0.417
       13.93462       28.05429       13.11894       -0.834
       13.15201       28.02490       13.66930        0.417
       14.39200       28.84875       13.39437        0.417
       13.09932       11.66176       27.48611       -0.834
       12.96466       11.75994       26.54353        0.417
       12.92854       12.53258       27.84493        0.417
       25.12208       25.58333       17.26747       -0.834
       24.23507       25.92331       17.14976        0.417
       25.35338       25.21577       16.41446        0.417
        6.82678        7.24294       17.73238       -0.834
        6.21090        7.24491       16.99963        0.417
        7.66946        7.01981       17.33700        0.417
       17.66702       10.45303       12.72363       -0.834
       16.79920       10.08416       12.88812        0.417
       18.27364        9.81958       13.10701        0.417
       11.43123        8.94307       24.72452       -0.834
       11.66284        8.52771       25.55522        0.417
       11.63389        8.28309       24.06150        0.417
       27.44889       17.25151       15.53806       -0.834
       27.23084       17.94394       16.16195        0.417
       28.15740       16.76413       15.95842        0.417
       26.35827       11.84142       10.89394       -0.834
       26.97768       11.55482       11.56507        0.417
       25.50753       11.53158       11.20453        0.417
       26.81884       20.36662       26.58537       -0.834
       26.09395       19.89908       27.00028        0.417
       26.40226       20.91079       25.91711        0.417
       22.19488       11.41900       27.70220       -0.834
       21.74080       11.31269       28.53810        0.417
       22.68979       10.60699       27.59296        0.417
       22.37145       27.99222       20.36760       -0.834
       22.08307       27.58734       21.18561        0.417
       23.32721       27.98348       20.41938        0.417
       18.94892       27.34728       19.55632       -0.834
       18.08977       27.38646       19.97651        0.417
       19.42089       26.66797       20.03800        0.417
       26.40067       23.42506       20.75807       -0.834
       26.06069       22.68102       20.26102        0.417
       25.62042       23.86394       21.09694        0.417
       26.52824       24.68711       14.12220       -0.834
       27.12037       24.61270       13.37381        0.417
       26.81029       23.99571       14.72106        0.417
        5.32807       17.46832       19.65354       -0.834
        5.50358       16.62845       19.22923        0.417
        6.19499       17.82819       19.84120        0.417
        5.32069       24.78930       19.30701       -0.834
        5.95382       24.18324       19.69184        0.417
        5.85023       25.52251       18.99361        0.417
       15.69331       12.08976       25.19274       -0.834
       15.09173       12.77873       25.47495        0.417
       15.40387       11.30974       25.66606        0.417
        6.09989       16.21170        6.02821       -0.834
        5.18686       16.40096        5.81182        0.417
        6.07400       15.35103        6.44630        0.417
        6.92338        7.27110       10.43111       -0.834
        6.24804        7.77557       10.88461        0.417
        7.60180        7.13027       11.09152        0.417
       22.57610       15.69610       27.29366       -0.834
       22.48064       16.64046       27.41737        0.417
       23.51031       15.56893       27.12844        0.417
       14.37321       17.76786       31.42241       -0.834
       13.68508       18.15289       30.87978        0.417
       14.36168       18.28536       32.22757        0.417
       22.64732       13.30537       23.43339       -0.834
       22.44719       13.61587       22.55035        0.417
       22.21948       13.93625       24.01233        0.417
       22.31903        4.25771       19.25882       -0.834
       21.92636        3.82249       18.50209        0.417
       22.18709        3.64566       19.98285        0.417
       13.25754       26.30263       18.92169       -0.834
       12.53064       26.31330       18.29900        0.417
       14.02454       26.53713       18.39925        0.417
       12.70374        4.91592       25.20872       -0.834
       13.59848        5.22879       25.34213        0.417
       12.50112        4.42230       26.00340        0.417
       10.53123        9.17598       12.34702       -0.834
       10.87269        9.20523       13.24077        0.417
       10.86013        8.35042       11.99136        0.417
       27.90471       11.01490       13.29086       -0.834
       27.46362       10.17196       13.39633        0.417
       27.98550       11.35656       14.18135        0.417
       15.12463       19.03572       25.34269       -0.834
       15.50792       18.78654       26.18367        0.417
       14.22817       19.29549       25.55509        0.417
       15.69824       19.85056        3.26666       -0.834
       14.75060       19.73206        3.33126        0.417
       15.80518       20.68711        2.81391        0.417
       27.24979       25.64614       18.97833       -0.834
       26.43333       25.50689       18.49850        0.417
       27.16963       25.09160       19.75441        0.417
        5.40179       15.69674       22.07051       -0.834
        5.52338       16.31266       21.34795        0.417
        5.27874       14.84840       21.64458        0.417
       13.43797       23.63884       19.54495       -0.834
       13.53557       24.57374       19.72569        0.417
       13.41923       23.57974       18.58976        0.417
       15.72538       24.23825        5.17719       -0.834
       15.76448       25.03635        4.65019        0.417
       15.91039       24.53068        6.06966        0.417
       22.66944       17.90895       18.66844       -0.834
       21.72240       17.79687       18.58603        0.417
       23.04136       17.22807       18.10781        0.417
       21.90622       15.87412        2.72754       -0.834
       21.26797       16.55471        2.51385        0.417
       21.58845       15.49604        3.54748        0.417
       11.72637       29.21696       21.73096       -0.834
       12.39680       28.59470       21.44891        0.417
       12.21849       29.98578       22.01899        0.417
       10.69412       25.86720       20.82086       -0.834
       10.68513       25.35219       20.01407        0.417
        9.99607       26.51131       20.70220        0.417
       12.49880       13.27863        8.97890       -0.834
       13.06224       13.77439        9.57303        0.417
       11.61626       13.60263        9.15886        0.417
       14.06278        9.12724       14.57512       -0.834
       14.22586        9.46491       15.45581        0.417
       13.65554        9.85778       14.10960        0.417
       19.10031       15.37693       28.98607       -0.834
       20.03683       15.17947       28.97321        0.417
       18.68134       14.57323       28.67825        0.417
       26.32466       12.06767        8.16819       -0.834
       26.26772       12.12709        9.12184        0.417
       27.10568       11.53831        8.00692        0.417
        5.82324       21.65444       16.78328       -0.834
        6.60450       21.10864       16.87276        0.417
        5.37327       21.56904       17.62379        0.417
       21.76184       23.99948       18.87947       -0.834
       22.04696       24.18281       17.98430        0.417
       20.81796       24.15818       18.86795        0.417
       20.88631        7.45478       11.41792       -0.834
       21.36733        6.67046       11.68189        0.417
       19.97612        7.26643       11.64664        0.417
       22.34820       27.18237       17.86776       -0.834
       22.42694       27.46811       18.77792        0.417
       21.43398       27.35269       17.64099        0.417
       13.44261       11.82764        3.97679       -0.834
       14.32191       12.17492        3.82692        0.417
       13.34800       11.81675        4.92924        0.417
       11.65353        6.68302       11.37429       -0.834
       11.63309        6.73877       10.41893        0.417
       12.41294        6.13290       11.56638        0.417
       30.60302       12.09346       12.52358       -0.834
       29.95506       12.51596       13.08739        0.417
       31.23642       12.78364       12.32689        0.417
       18.05998       17.85281        9.98776       -0.834
       18.25556       17.06491       10.49491        0.417
       18.59780       17.77092        9.20018        0.417
        6.18120        6.31512       13.12246       -0.834
        6.21870        5.38758       12.88902        0.417
        7.09580        6.56829       13.24752        0.417
       16.49288       26.61221       12.40741       -0.834
       16.34122       25.86455       11.82928        0.417
       15.64542       27.05468       12.45485        0.417
        8.01383       27.14529       20.71415       -0.834
        7.29036       26.93805       20.12265        0.417
        7.59616       27.28717       21.56365        0.417
       27.23069       11.84605       23.54979       -0.834
       27.80674       12.39971       24.07692        0.417
       26.35503       12.20462       23.69432        0.417
       15.98572       29.81356       14.25307       -0.834
       16.65334       29.60996       14.90811        0.417
       16.47613       30.17577       13.51514        0.417
       27.05832        9.37708       17.55407       -0.834
       26.33377        9.52768       18.16119        0.417
       26.81356        9.85896       16.76406        0.417
        8.89926       20.86711       17.44295       -0.834
        9.58755       20.48064       17.98436        0.417
        9.07982       20.54561       16.55962        0.417
        8.55469       25.72860       24.06646       -0.834
        7.71221       26.11092       24.31202        0.417
        9.07214       26.46995       23.75204        0.417
       24.05993        6.40545       19.33074       -0.834
       23.37208        5.74393       19.25672        0.417
       24.86082        5.90315       19.48074        0.417
       25.99044       20.03418       14.34671       -0.834
       26.77709       19.57827       14.04747        0.417
       25.71302       20.55435       13.59258        0.417
       16.17732       28.34615        9.04575       -0.834
       16.94075       28.57548        8.51584        0.417
       15.47085       28.22875        8.41066        0.417
       20.25859       12.58455       10.01947       -0.834
       20.03731       11.65804       10.11353        0.417
       20.91401       12.74489       10.69840        0.417
       11.53502       23.03773       23.87577       -0.834
       11.58241       23.59444       24.65299        0.417
       10.63583       23.13794       23.56326        0.417
        8.88277       12.15269        3.71256       -0.834
        9.54334       12.12363        4.40467        0.417
        8.53428       13.04339        3.75066        0.417
       18.10268       12.14390       23.89690       -0.834
       17.26568       11.94669       24.31734        0.417
       18.75200       11.68026       24.42570        0.417
       29.35929       21.29004       14.53300       -0.834
       29.16444       20.45634       14.10495        0.417
       29.82510       21.04605       15.33282        0.417
       12.84329        6.05514       20.80510       -0.834
       12.17073        6.38056       20.20677        0.417
       13.62501        6.56230       20.58617        0.417
       12.76097       16.31600       23.35997       -0.834
       13.70798       16.17777       23.34288        0.417
       12.58097       16.63538       24.24418        0.417
       24.13082       15.07888       10.05244       -0.834
       24.99701       14.80178       10.35105        0.417
       24.21485       15.14552        9.10126        0.417
       18.01233       29.15497       16.99737       -0.834
       17.45248       28.52429       17.45019        0.417
       18.40254       29.67645       17.69881        0.417
       24.61335        7.49240       16.72283       -0.834
       24.03160        7.16901       17.41073        0.417
       25.16808        6.74313       16.50579        0.417
       14.89756        3.54995       19.02992       -0.834
       14.66204        4.35057       18.56112        0.417
       15.27764        2.98226       18.35947        0.417
       12.92462       17.74454       28.45479       -0.834
       12.70242       17.67404       27.52641        0.417
       12.29319       17.17669       28.89647        0.417
       19.91358       22.31215       24.78603       -0.834
       19.04790       21.95483       24.98394        0.417
       20.48588       21.54596       24.74530        0.417
       20.83286       16.81724       12.98057       -0.834
       21.53692       16.18283       13.11491        0.417
       20.88413       17.39713       13.74039        0.417
       21.73442       10.46518       18.33089       -0.834
       21.16723       10.76034       19.04322        0.417
       21.28883        9.69804       17.97148        0.417
       22.21379       23.54811        8.96469       -0.834
       22.66427       24.33410        8.65563        0.417
       22.51529       22.85303        8.37971        0.417
       28.62327       14.45578       16.97476       -0.834
       29.03421       14.03026       16.22224        0.417
       27.69152       14.25616       16.88409        0.417
       26.83302       22.35613       15.90379       -0.834
       26.32534       22.14371       16.68699        0.417
       27.17186       21.51347       15.60157        0.417
       28.39493        8.95538       21.05588       -0.834
       28.33978        8.00427       20.96307        0.417
       27.89842        9.14809       21.85123        0.417
       18.11823        5.57703       15.53648       -0.834
       17.60747        6.34170       15.80226        0.417
       17.75962        4.85684       16.05508        0.417
       10.67475       29.78850       16.78603       -0.834
       10.16520       29.11398       17.23504        0.417
       10.03720       30.24555       16.23751        0.417
       28.12464       16.99473       10.98618       -0.834
       27.60417       17.77446       10.79292        0.417
       27.51334       16.26581       10.88021        0.417
       21.38192        7.29197        6.76769       -0.834
       21.09510        6.38188        6.69217        0.417
       21.71918        7.36399        7.66060        0.417
       26.56738       11.35828       26.62636       -0.834
       27.21320       10.80997       26.18082        0.417
       26.12253       11.82704       25.92024        0.417
        9.60380       23.25585       19.17403       -0.834
        8.95101       22.66243       18.80261        0.417
       10.30301       22.68006       19.48356        0.417
       27.07424        8.38821       12.76612       -0.834
       27.79179        7.97300       12.28762        0.417
       27.20318        8.11687       13.67496        0.417
       11.81370       21.69780       20.62173       -0.834
       11.94207       21.87311       21.55395        0.417
       12.51746       22.18006       20.18771        0.417
       22.78781       14.73891       14.03773       -0.834
       22.35344       14.01411       14.48741        0.417
       23.24374       14.32718       13.30367        0.417
       16.00677        7.60818       15.66492       -0.834
       15.50336        8.19517       15.10075        0.417
       15.34577        7.07910       16.11144        0.417
       19.04043       18.80472       30.05139       -0.834
       18.82398       19.19766       29.20583        0.417
       19.88886       19.18329       30.28180        0.417
       10.79093       17.02417        9.52252       -0.834
       10.50339       16.89907        8.61814        0.417
       10.66541       16.16941        9.93467        0.417
       20.21842       25.28889       21.00898       -0.834
       21.01407       24.92578       20.61997        0.417
       20.28594       25.07304       21.93908        0.417
       19.10886       22.98713       28.87647       -0.834
       19.87213       22.77851       29.41511        0.417
       19.02946       22.24628       28.27558        0.417
       20.27656        7.68490       28.29259       -0.834
       19.33838        7.62813       28.11141        0.417
       20.67290        7.88655       27.44495        0.417
        4.05213       21.51738       19.11119       -0.834
        3.46622       20.90048       19.54980        0.417
        4.57063       21.90039       19.81879        0.417
       19.72991        7.57005       25.31127       -0.834
       19.54225        7.73804       24.38780        0.417
       19.33696        8.30986       25.77445        0.417
        5.99843       23.36751       11.33583       -0.834
        6.82744       22.89402       11.26671        0.417
        5.38302       22.72394       11.68703        0.417
       19.28462       11.48608        3.92519       -0.834
       19.92570       11.04568        4.48313        0.417
       19.13698       12.33102        4.35004        0.417
       24.14684        8.97412       13.84658       -0.834
       25.02582        8.80490       13.50748        0.417
       24.28839        9.25569       14.75042        0.417
       26.01100       22.69992       24.93183       -0.834
       25.23660       22.69237       24.36926        0.417
       26.74966       22.71317       24.32319        0.417
       15.06144        9.92584       11.24109       -0.834
       15.06267        9.19093       10.62779        0.417
       14.30000       10.44797       10.98846        0.417
       27.96377        8.15292       15.24376       -0.834
       28.89330        8.10641       15.46745        0.417
       27.52219        8.29419       16.08121        0.417
        7.24279       28.30022       12.89229       -0.834
        7.16374       27.46056       12.43956        0.417
        7.45309       28.92716       12.20022        0.417
       23.87259       18.31019       14.48145       -0.834
       24.30288       19.15860       14.37524        0.417
       24.56816       17.66861       14.33726        0.417
       11.46892       23.34050        5.47969       -0.834
       11.26299       24.24261        5.72469        0.417
       11.08914       22.80912        6.17942        0.417
        1.95891       21.38354       17.03035       -0.834
        2.63215       21.56954       16.37584        0.417
        2.28714       21.78739       17.83372        0.417
        8.81815       22.54039       27.00958       -0.834
        8.40808       22.41467       26.15386        0.417
        8.65101       23.45834       27.22327        0.417
       15.93429       30.39840       19.96774       -0.834
       15.21148       29.98976       19.49152        0.417
       16.53863       30.68806       19.28429        0.417
       18.01507       26.07213        9.14972       -0.834
       17.43295       26.77286        9.44358        0.417
       18.86188       26.28281        9.54312        0.417
        7.15865       16.48391       28.10397       -0.834
        7.12922       15.97199       27.29569        0.417
        7.54913       15.89323       28.74806        0.417
       30.02744       18.25559       18.91033       -0.834
       29.38441       17.58845       19.15048        0.417
       29.57018       19.08671       19.03830        0.417
       26.01021       19.00753       10.00717       -0.834
       25.24972       18.53757       10.34925        0.417
       26.05345       19.80758       10.53089        0.417
       12.10953        9.16203       27.36169       -0.834
       11.84228        9.03690       28.27226        0.417
       12.50757       10.03240       27.34584        0.417
       18.48084       22.53875       13.19755       -0.834
       19.23954       21.95565       13.22185        0.417
       18.01325       22.29107       12.39991        0.417
       21.50113        8.21916       14.55051       -0.834
       22.32362        8.42742       14.10737        0.417
       21.49612        7.26385       14.61065        0.417
       22.45202        3.41467       16.49648       -0.834
       23.38043        3.34342       16.71831        0.417
       22.19029        2.52232       16.26970        0.417
        8.74845       16.36238       18.24603       -0.834
        8.33407       16.90998       18.91286        0.417
        8.60261       16.83233       17.42499        0.417
        9.36557        6.19539       21.49961       -0.834
       10.06066        6.14355       22.15566        0.417
        9.59466        6.95696       20.96692        0.417
       23.33277       21.97202       11.76829       -0.834
       22.51513       22.34865       11.44296        0.417
       23.13620       21.04365       11.89366        0.417
       18.40105       25.64942       14.08521       -0.834
       18.26140       24.72343       13.88703        0.417
       17.67378       26.09923       13.65512        0.417
       24.47946       25.46717       20.75412       -0.834
       23.75563       25.38603       20.13305        0.417
       24.62212       26.41026       20.83452        0.417
       27.19424       19.14464       17.39289       -0.834
       27.58031       19.80232       17.97136        0.417
       27.16954       18.34612       17.92013        0.417
       13.88279       16.43216        1.77373       -0.834
       14.79425       16.14799        1.70494        0.417
       13.83384       17.21599        1.22653        0.417
       11.24727       18.06259       17.59687       -0.834
       10.60927       17.60614       17.04837        0.417
       10.72627       18.44680       18.30197        0.417
       15.34751       21.87436       20.65650       -0.834
       15.16180       21.35443       21.43843        0.417
       14.62568       22.50114       20.60804        0.417
        4.99720       14.76597       15.12690       -0.834
        5.54903       14.38856       15.81194        0.417
        4.59096       15.52850       15.53891        0.417
       18.01202       21.75986       22.72936       -0.834
       18.48238       22.59349       22.73631        0.417
       17.17747       21.95872       22.30484        0.417
        6.10488       20.84322       23.28874       -0.834
        6.31179       19.96940       23.62018        0.417
        5.20178       20.99746       23.56606        0.417
       10.20777       14.23578        9.77165       -0.834
        9.64495       13.70693       10.33714        0.417
        9.86228       14.09521        8.89011        0.417
        7.43022       11.36255       23.22325       -0.834
        6.48346       11.27848       23.11007        0.417
        7.67345       10.61700       23.77210        0.417
       24.28052       19.51386       27.51628       -0.834
       24.09601       19.18113       28.39462        0.417
       23.65348       20.22649       27.39298        0.417
        9.89680       18.06882       11.90731       -0.834
       10.33457       18.01780       11.05761        0.417
       10.07988       17.22605       12.32259        0.417
       16.60345       12.98415       20.40305       -0.834
       16.71992       12.74264       21.32193        0.417
       15.86765       13.59637       20.40724        0.417
       24.11101       13.35952       27.37683       -0.834