%Nproc=32
%Mem=120Gb
%chk=temp.chk
#p cam-b3lyp/6-31+G(d,p) nosymm charge Freq 

Calculation for S0 with freq for abs spect

0  1
 C         16.93115       17.82615       17.46116
 C         17.94268       16.08207       16.09092
 C         16.78928       15.46478       15.99608
 C         15.60070       15.96185       16.57912
 N         15.74282       17.13828       17.26225
 H         18.85850       15.86961       15.56072
 H         16.86040       14.50829       15.37809
 O         14.54254       15.38670       16.57619
 O         17.05193       18.89275       18.02295
 N         18.00016       17.27930       16.72595
 H         18.85599       17.85854       16.69302
 H         14.88066       17.59475       17.58336
 O         14.77744       12.61388       15.96291
 H         14.82984       13.56528       15.87163
 H         14.50420       12.47448       16.86963
 O         15.25912       17.66673       13.73774
 H         15.16146       16.75801       13.45325
 H         16.20522       17.80975       13.76358
 O         18.43566       18.55638       13.56063
 H         19.28528       18.63209       13.99498
 H         18.50972       19.11795       12.78902
 O         15.37068       20.70635       16.47789
 H         16.12212       20.56662       17.05412
 H         14.71584       21.12689       17.03516
 O         15.63991       16.17715       21.73641
 H         15.39393       17.05857       21.45564
 H         15.35832       15.60944       21.01903
 O         19.54234       15.70408       18.74588
 H         19.80265       16.53348       18.34518
 H         19.70647       15.82729       19.68082
 O         17.96721       13.15978       18.48950
 H         17.35027       13.03097       19.20994
 H         18.28120       14.05724       18.59999
 O         14.97319       14.54588       19.75310
 H         14.49514       14.39484       18.93769
 H         15.51420       13.76385       19.86250
 O         20.57166       18.04189       17.63634
 H         21.00090       18.49993       16.91372
 H         20.71726       18.60421       18.39715
 O         19.35052       15.36364       12.81828
 H         18.75407       15.79278       12.20483
 H         19.00949       14.47312       12.90135
 O         20.40742       19.44140       15.19343
 H         21.32078       19.70171       15.31279
 H         19.90554       20.23536       15.37779
 O         15.06454       18.52451       20.49865
 H         15.15289       19.47735       20.52182
 H         14.41314       18.36041       19.81676
 O         14.76425       15.25441       12.96966
 H         14.28349       15.10315       12.15589
 H         15.08089       14.38821       13.22590
 O         11.82757       15.15165       17.73243
 H         11.41061       14.81574       16.93899
 H         12.74262       15.28441       17.48487
 O         13.55224       18.79115       15.50985
 H         14.25229       19.41862       15.69000
 H         13.80923       18.37451       14.68729
 O         18.70962       12.27899       16.17188
 H         19.51898       12.76911       16.02714
 H         18.46801       12.47652       17.07678
 O         13.24480       17.75045       18.63901
 H         12.65604       17.37716       19.29494
 H         12.71598       17.80069       17.84273
 O         18.21752       21.15352       18.55670
 H         18.07779       21.33694       19.48572
 H         17.80704       20.30030       18.41615
 
        8.95679       19.78102       22.42903       -0.834
        9.62236       19.32684       22.94572        0.417
        8.89396       19.27392       21.61963        0.417
       20.90381       11.76583       18.51723       -0.834
       20.25907       12.04359       17.86655        0.417
       21.37548       11.04719       18.09613        0.417
       11.96740        2.20882       16.40939       -0.834
       11.65404        1.61301       15.72892        0.417
       11.30869        2.90252       16.44291        0.417
        8.13017       15.82404        7.41852       -0.834
        8.33026       15.29057        8.18768        0.417
        7.33915       15.42911        7.05172        0.417
        8.84468       16.83227       28.30220       -0.834
        9.03346       17.64413       28.77279        0.417
        9.20641       16.14260       28.85872        0.417
       13.96343       16.20092       30.49268       -0.834
       14.54899       16.75081       31.01324        0.417
       13.10486       16.31048       30.90145        0.417
       11.19162       22.18272        6.54517       -0.834
       10.32642       21.94375        6.21272        0.417
       11.44342       21.45013        7.10744        0.417
       11.89134       12.84413        2.44757       -0.834
       12.49092       13.12814        3.13754        0.417
       11.06085       13.26939        2.66128        0.417
       22.38385       20.22691       21.99717       -0.834
       23.05989       20.00971       22.63906        0.417
       22.87006       20.51713       21.22542        0.417
       26.42418        6.61910       16.96224       -0.834
       26.73558        6.07431       17.68506        0.417
       26.41667        6.03271       16.20571        0.417
        7.54773        5.29045       19.66419       -0.834
        7.62763        5.91265       20.38718        0.417
        8.01137        4.50974       19.96710        0.417
       13.53382       19.18389       12.18812       -0.834
       13.05098       18.87972       12.95661        0.417
       14.44637       18.96397       12.37550        0.417
       21.86602       14.35683       18.69378       -0.834
       21.04063       14.81907       18.83971        0.417
       21.60408       13.46857       18.45166        0.417
       16.54080        2.84039       18.03659       -0.834
       15.64083        3.15334       17.94530        0.417
       16.46700        2.05024       18.57181        0.417
       12.06284       16.53571        8.80789       -0.834
       11.33427       17.06524        9.13197        0.417
       11.94338       16.51869        7.85833        0.417
       21.88954       12.00267       26.43844       -0.834
       21.65950       12.83849       26.84429        0.417
       21.28196       11.37255       26.82576        0.417
       22.74329       16.89499       19.09634       -0.834
       22.03401       16.81099       19.73360        0.417
       22.48977       16.31613       18.37740        0.417
       19.29767       20.75157       25.69020       -0.834
       20.02993       21.36765       25.71199        0.417
       18.62178       21.16301       26.22884        0.417
       21.63189       19.71756       11.36980       -0.834
       21.54003       19.26505       10.53134        0.417
       22.42024       19.34085       11.76072        0.417
       23.50796       15.73726       15.83535       -0.834
       22.76310       16.31651       15.67445        0.417
       23.99656       15.74034       15.01225        0.417
       13.89091        3.73798       17.99968       -0.834
       13.44421        3.25353       17.30542        0.417
       13.69924        4.65695       17.81262        0.417
       20.48812       28.51570        7.86582       -0.834
       19.57325       28.29730        8.04340        0.417
       20.98051       28.06009        8.54861        0.417
       23.19345        6.41401       12.43301       -0.834
       23.00139        7.32482       12.65609        0.417
       22.65876        6.23871       11.65867        0.417
       13.52478        8.14905       28.51897       -0.834
       13.92809        7.39186       28.94350        0.417
       14.17389        8.43874       27.87790        0.417
        8.92813       16.93168       25.41555       -0.834
        8.04630       16.65755       25.16363        0.417
        8.94287       16.84619       26.36881        0.417
       19.33624       18.37376       28.72905       -0.834
       18.49371       18.00402       28.99301        0.417
       19.19934       19.32092       28.74859        0.417
       12.66463        6.62283        9.20292       -0.834
       11.79353        6.27302        9.39016        0.417
       13.20194        5.84952        9.03110        0.417
       20.06434       18.17287       25.92934       -0.834
       19.54449       18.90740       25.60307        0.417
       19.99594       18.23491       26.88207        0.417
       15.85202       30.34941       19.57823       -0.834
       15.07435       29.81021       19.72215        0.417
       16.53281       29.72599       19.32503        0.417
       15.20520       13.72653       31.57054       -0.834
       14.96249       14.38283       30.91740        0.417
       14.44700       13.67533       32.15256        0.417
       28.67548       22.20828       16.69260       -0.834
       28.02230       22.20349       17.39229        0.417
       28.20304       22.53160       15.92546        0.417
       22.73393       25.26999       22.63061       -0.834
       22.01158       25.89108       22.72379        0.417
       22.34898       24.42025       22.84508        0.417
       13.14678       31.88896       19.42001       -0.834
       13.17878       30.95029       19.23534        0.417
       13.54994       31.97752       20.28364        0.417
        5.30082       21.83091        9.00600       -0.834
        4.73865       22.34122        9.58891        0.417
        5.09828       20.91901        9.21491        0.417
        5.95171        7.61051       14.47188       -0.834
        6.08383        6.70136       14.20316        0.417
        6.60040        8.10540       13.97135        0.417
       15.97982        9.95735        6.03106       -0.834
       16.40987        9.24143        5.56336        0.417
       15.50555        9.52812        6.74315        0.417
       26.00264       20.50916        7.83718       -0.834
       26.65548       20.21620        7.20141        0.417
       26.51096       20.95342        8.51577        0.417
       30.71997       17.07217       22.67031       -0.834
       31.16465       16.35714       23.12554        0.417
       29.80745       17.00490       22.95140        0.417
       15.42578        7.52989       18.04212       -0.834
       14.67599        6.96289       17.86171        0.417
       16.18530        6.95079       17.97881        0.417
       30.74083       17.99509       15.41281       -0.834
       30.46598       17.66007       16.26631        0.417
       31.47512       18.57709       15.60858        0.417
       30.12284       14.74173        9.93679       -0.834
       29.37849       15.31909       10.10657        0.417
       30.39563       14.44069       10.80350        0.417
       25.23191       27.25142       16.75976       -0.834
       24.60745       27.90489       17.07481        0.417
       24.68848       26.51236       16.48645        0.417
       18.13745       18.14399        3.00625       -0.834
       18.52903       18.97991        2.75299        0.417
       17.27250       18.37664        3.34383        0.417
       21.58697       22.89816       23.02328       -0.834
       21.09422       22.85621       23.84284        0.417
       21.90442       22.00530       22.88814        0.417
       25.69595       23.39633       12.53257       -0.834
       25.10335       22.69997       12.24949        0.417
       25.91265       23.17376       13.43796        0.417
       20.63111       28.32557       16.78979       -0.834
       20.30501       28.50532       17.67160        0.417
       19.90132       28.55196       16.21326        0.417
       15.78064       16.19829        5.86664       -0.834
       15.03665       15.71159        6.22138        0.417
       16.53299       15.88704        6.36995        0.417
       11.11578       18.42174       23.85691       -0.834
       10.53175       17.87217       24.37951        0.417
       11.93296       18.44477       24.35483        0.417
       18.76729       10.54611        3.74334       -0.834
       18.84072       11.24288        4.39552        0.417
       17.89373       10.65914        3.36871        0.417
       28.07662       12.11415       18.26571       -0.834
       28.62489       11.58282       17.68838        0.417
       27.89235       12.90573       17.76009        0.417
       23.69921       17.44543        9.02666       -0.834
       24.26929       16.76524        8.66808        0.417
       24.18477       18.25970        8.89466        0.417
       27.77535       11.52752       12.16378       -0.834
       26.89031       11.88237       12.08006        0.417
       28.05966       11.37657       11.26233        0.417
       11.06835       10.72430       13.12399       -0.834
       11.99176       10.57317       13.32571        0.417
       10.83856       10.02443       12.51276        0.417
       14.27730        7.60364       11.35580       -0.834
       14.47988        8.40485       11.83877        0.417
       13.56794        7.85328       10.76358        0.417
        8.24061       24.67760       23.59655       -0.834
        7.75105       25.16738       22.93574        0.417
        7.59176       24.46522       24.26747        0.417
       20.51789       24.46965       17.08099       -0.834
       21.37668       24.11286       17.30771        0.417
       20.29383       25.04096       17.81559        0.417
       10.80420        7.84909       27.49723       -0.834
       11.22370        7.85456       26.63687        0.417
       11.51833        8.01180       28.11348        0.417
       22.42067       21.10099       29.13073       -0.834
       22.65728       20.33958       28.60112        0.417
       23.25637       21.52144       29.33337        0.417
       11.10788       18.68204       16.76363       -0.834
       11.77374       19.06510       16.19256        0.417
       10.69458       19.43378       17.18824        0.417
       17.79922       11.89501       22.83205       -0.834
       18.02375       12.63352       22.26601        0.417
       18.02616       11.12051       22.31739        0.417
       18.92501        6.64405       11.78382       -0.834
       18.63883        7.33377       11.18496        0.417
       19.30510        7.11346       12.52639        0.417
        2.58466       19.03265       17.01999       -0.834
        3.20498       18.51009       16.51169        0.417
        1.72342       18.73321       16.72872        0.417
        4.53426       18.86587        8.47942       -0.834
        3.83749       18.20983        8.49825        0.417
        5.34231       18.36031        8.56709        0.417
       27.95857       14.20348       21.01025       -0.834
       28.77994       14.13722       20.52324        0.417
       27.31039       14.45915       20.35395        0.417
       15.53136       16.06385        3.10666       -0.834
       15.59686       16.41536        3.99456        0.417
       15.98834       15.22374        3.14682        0.417
        9.40224       25.32487       10.30351       -0.834
        9.87889       26.04408        9.88905        0.417
        9.95127       24.55523       10.15364        0.417
       12.68733       24.27019       21.08506       -0.834
       12.89470       23.33574       21.09044        0.417
       11.73526       24.30421       20.99211        0.417
       21.70170       22.45042       14.49654       -0.834
       20.86917       22.29204       14.94156        0.417
       21.68103       23.38088       14.27284        0.417
       12.64542       24.56238       17.12315       -0.834
       12.14765       24.30958       16.34563        0.417
       11.98262       24.68687       17.80244        0.417
        9.04519        9.47897       26.12452       -0.834
        8.90602       10.29860       26.59893        0.417
        9.53633        8.92888       26.73477        0.417
       20.76614       14.12800        7.58037       -0.834
       21.65615       13.80352        7.71756        0.417
       20.54943       14.58511        8.39297        0.417
       23.86926       18.63815       28.05308       -0.834
       23.14386       18.34218       28.60302        0.417
       24.42005       17.86284       27.94463        0.417
        8.10808       25.24679        7.85315       -0.834
        7.88269       26.16478        8.00393        0.417
        9.00775       25.16546        8.16970        0.417
       10.24957       22.80352       11.30569       -0.834
        9.73234       23.39794       11.84917        0.417
       10.96895       22.52492       11.87236        0.417
       10.72605       19.16380       13.32035       -0.834
       11.22515       18.34762       13.35168        0.417
       10.62531       19.34779       12.38642        0.417
       18.69776       29.60229       14.98219       -0.834
       18.11643       29.20379       14.33452        0.417
       19.38620       30.01806       14.46313        0.417
       22.09086        5.93403       24.97172       -0.834
       22.45819        6.01590       24.09161        0.417
       22.12276        4.99582       25.15877        0.417
       21.27485       27.74011       21.60198       -0.834
       21.00076       27.85726       22.51158        0.417
       22.14365       28.13967       21.55977        0.417
       23.08942       20.63743        8.85068       -0.834
       23.66871       20.52129        8.09758        0.417
       22.20707       20.61672        8.48020        0.417
        4.70612       20.78103       12.29498       -0.834
        4.45297       21.61366       11.89640        0.417
        3.89386       20.43535       12.66508        0.417
       20.89753        8.80991        5.94862       -0.834
       21.00431        8.35903        5.11104        0.417
       20.60905        9.69130        5.71163        0.417
        9.63975        6.32450       14.70240       -0.834
        9.72544        5.87113       15.54106        0.417
        8.72352        6.59978       14.67092        0.417
       20.70396       11.31980       13.41343       -0.834
       20.98773       12.18297       13.11233        0.417
       21.30657       11.10381       14.12508        0.417
       19.63416       21.01854       29.26393       -0.834
       19.68094       20.68596       30.16027        0.417
       20.48501       21.43151       29.11647        0.417
       20.16195        4.76345       20.74226       -0.834
       19.22666        4.77789       20.94537        0.417
       20.20355        4.88742       19.79403        0.417
       17.09183        6.98100        5.49624       -0.834
       17.51128        6.87012        6.34946        0.417
       17.34989        6.20470        4.99926        0.417
       29.59809       13.58474       12.45204       -0.834
       29.04245       12.84034       12.22103        0.417
       29.56725       13.61965       13.40811        0.417
       29.97845       20.01181       19.37293       -0.834
       29.63603       19.12318       19.46945        0.417
       29.82119       20.23116       18.45457        0.417
       10.65265       13.87206       22.86536       -0.834
       11.26578       13.66395       23.57032        0.417
       10.89340       13.27776       22.15467        0.417
        3.94358       15.56409       18.21324       -0.834
        4.58642       16.15310       17.81819        0.417
        4.09114       14.72300       17.78077        0.417
        9.65694        5.11151       17.16401       -0.834
       10.19600        5.89578       17.26688        0.417
        9.04479        5.14293       17.89921        0.417
        9.47312       17.83104        5.67107       -0.834
        8.90613       17.55444        6.39096        0.417
        9.95438       18.58157        6.01940        0.417
       23.20735       20.02821       15.48925       -0.834
       22.76714       20.85497       15.29197        0.417
       23.44761       20.09874       16.41311        0.417
       18.50256       24.55558       28.64162       -0.834
       18.69170       24.28446       29.53992        0.417
       19.14951       25.23592       28.45502        0.417
       20.06984       23.60770       12.39997       -0.834
       19.37005       23.32706       12.98969        0.417
       20.06553       22.95864       11.69645        0.417
       23.58438       13.75523        7.86459       -0.834
       23.97724       14.21762        7.12425        0.417
       24.14286       12.98841        7.99231        0.417
       18.00819       15.18486        7.35936       -0.834
       17.42655       14.68435        7.93156        0.417
       18.67233       14.55412        7.08129        0.417
        9.89597       20.50733       18.41607       -0.834
        9.71278       19.92710       19.15499        0.417
        9.04932       20.62040       17.98407        0.417
       15.49481       14.46336        9.06825       -0.834
       14.87842       14.69640        8.37400        0.417
       14.98893       14.54741        9.87649        0.417
       13.61040       29.01290       19.50149       -0.834
       13.09121       28.69801       20.24144        0.417
       13.54874       28.31401       18.85036        0.417
       19.26220       17.82464        7.00811       -0.834
       18.78873       18.63064        7.21409        0.417
       18.65154       17.12310        7.23432        0.417
        9.44370       21.82018       14.06357       -0.834
        9.77372       20.92263       14.10492        0.417
        8.73163       21.78487       13.42487        0.417
       19.30316       26.40834        6.40114       -0.834
       20.22028       26.67251        6.32812        0.417
       19.06649       26.61062        7.30630        0.417
       24.67069       14.93979       19.57768       -0.834
       24.18017       14.20434       19.94475        0.417
       24.01458       15.45606       19.10947        0.417
        9.79793       17.34486       10.59932       -0.834
        9.80543       16.50155       11.05210        0.417
        9.69261       17.99117       11.29747        0.417
       17.91976       20.68137       21.49176       -0.834
       17.06528       21.02021       21.22481        0.417
       17.72133       20.04209       22.17600        0.417
       17.49390       24.19802        8.04594       -0.834
       17.08746       23.34260        7.90701        0.417
       17.87380       24.42395        7.19691        0.417
       12.27578       18.58346       21.52009       -0.834
       13.13670       18.22370       21.73369        0.417
       11.75844       18.45608       22.31530        0.417
       28.47936       23.66117       23.17953       -0.834
       29.15228       23.28020       23.74368        0.417
       28.42242       23.06171       22.43546        0.417
       19.12680        8.27342       24.43702       -0.834
       19.36048        7.88679       25.28091        0.417
       18.48913        8.95380       24.65310        0.417
       17.56873        4.90758       21.50308       -0.834
       17.20149        5.62268       22.02269        0.417
       17.23799        4.11263       21.92127        0.417
       15.39481       25.14725        4.92228       -0.834
       14.65961       24.56698        5.11978        0.417
       16.17240       24.62490        5.11909        0.417
       21.81622       22.58090        5.73743       -0.834
       21.34958       23.26988        5.26437        0.417
       22.38740       22.18317        5.08032        0.417
        9.89543       29.07739       13.13920       -0.834
        9.08779       28.65939       12.84050        0.417
       10.44284       28.35290       13.44200        0.417
       10.20862       15.16973       29.98508       -0.834
       10.70992       15.80218       30.49980        0.417
        9.51236       14.87902       30.57411        0.417
       16.28003       28.43441       26.05875       -0.834
       16.28050       27.47824       26.01433        0.417
       16.05256       28.63234       26.96721        0.417
        8.93949       17.30734       14.20958       -0.834
        9.61634       17.96703       14.05823        0.417
        8.76882       17.35009       15.15047        0.417
       27.88331       26.64035       16.85133       -0.834
       26.97202       26.89420       16.99745        0.417
       28.19782       27.24920       16.18303        0.417
       28.79668        8.32299       20.35049       -0.834
       29.53910        8.91531       20.46960        0.417
       28.25836        8.45291       21.13124        0.417
       19.39345       24.65886       20.56932       -0.834
       19.75620       25.36088       21.10951        0.417
       19.02320       24.03923       21.19797        0.417
       14.18422        8.63786       22.24947       -0.834
       14.66448        9.13897       22.90862        0.417
       14.77375        8.60548       21.49605        0.417
       14.93257       28.10061       15.56899       -0.834
       15.68253       27.52437       15.71641        0.417
       15.24704       28.74678       14.93669        0.417
        6.52013       13.76050       19.91987       -0.834
        6.14880       13.51445       20.76710        0.417
        6.56848       14.71609       19.94744        0.417
       15.40937       22.60949       23.53221       -0.834
       14.81654       23.22223       23.96734        0.417
       15.83932       22.14202       24.24835        0.417
       29.50845       21.63651       13.56077       -0.834
       29.74999       21.91147       12.67629        0.417
       29.02713       22.38153       13.92065        0.417
        7.52272       25.30553       16.54851       -0.834
        7.03031       25.81700       17.19051        0.417
        8.36221       25.75919       16.47316        0.417
       19.95060       28.67817       19.34313       -0.834
       20.06615       29.60428       19.55574        0.417
       20.37137       28.21181       20.06541        0.417
       16.25771        7.97292       14.77856       -0.834
       17.12606        8.18134       15.12317        0.417
       16.29964        7.03947       14.57087        0.417
       14.07759       22.35184        9.25676       -0.834
       13.80931       23.20966        8.92751        0.417
       14.30337       22.50671       10.17397        0.417
       21.21802       13.56392       15.75756       -0.834
       21.58828       13.74132       14.89288        0.417
       21.46952       14.32117       16.28628        0.417
       28.88191       11.34392        9.70007       -0.834
       29.75918       11.56238        9.38559        0.417
       28.56206       10.68685        9.08186        0.417
       12.27692       29.67845       11.72259       -0.834
       11.52191       29.52244       12.28991        0.417
       11.90087       30.01884       10.91083        0.417
       16.84381        6.77887       23.52261       -0.834
       16.23486        7.51586       23.57017        0.417
       17.71038        7.18473       23.49887        0.417
       20.82625        6.53074       27.57098       -0.834
       20.44026        5.68283       27.79077        0.417
       20.98495        6.48502       26.62814        0.417
       17.15798        9.04249       30.14948       -0.834
       16.38561        9.46583       30.52426        0.417
       17.72727        9.76731       29.89104        0.417
        7.14772       23.03893       14.98883       -0.834
        8.03852       22.72857       14.82639        0.417
        7.22485       23.59451       15.76447        0.417
       16.13645       19.04834        4.58774       -0.834
       15.98821       18.41068        5.28606        0.417
       15.33991       19.57897        4.57424        0.417
       15.59463       27.22617        8.58680       -0.834
       15.32053       27.79058        9.30966        0.417
       16.27641       27.72569        8.13750        0.417
       14.07296        5.00169       25.41511       -0.834
       13.41605        5.25179       26.06484        0.417
       13.62512        5.09210       24.57398        0.417
       28.68498       17.75945       20.18537       -0.834
       28.40431       16.88165       19.92668        0.417
       29.42924       17.61124       20.76877        0.417
       23.21419       14.81115       10.46584       -0.834
       23.36114       14.31041        9.66341        0.417
       22.90455       15.66468       10.16279        0.417
       25.38270       23.61989       25.01266       -0.834
       25.96977       24.09819       24.42716        0.417
       25.92161       23.41275       25.77614        0.417
        9.72473       22.17405       25.10154       -0.834
        9.06696       22.39521       24.44226        0.417
       10.41803       22.82190       24.97558        0.417
       24.31018        4.56636       14.57085       -0.834
       23.90206        4.55072       15.43654        0.417
       23.76083        5.15849       14.05721        0.417
       21.77499       16.32991       24.83488       -0.834
       20.95098       16.79503       24.97949        0.417
       21.63273       15.83483       24.02811        0.417
        7.24779       12.38980        6.38259       -0.834
        7.95990       12.75089        5.85463        0.417
        7.68497       11.99326        7.13615        0.417
       20.45354       16.04212       21.28964       -0.834
       19.76441       16.47168       21.79641        0.417
       20.68862       15.27268       21.80823        0.417
        6.56058       18.78653       11.94355       -0.834
        7.30989       19.19535       11.51039        0.417
        5.95131       19.50787       12.10071        0.417
       12.45445       27.75575       24.30225       -0.834
       13.27566       27.27231       24.21212        0.417
       12.68142       28.65826       24.07822        0.417
       27.40356        9.07117       18.09114       -0.834
       27.84166        8.91700       18.92812        0.417
       27.07784        8.21024       17.82859        0.417