%Nproc=32
%Mem=120Gb
%chk=temp.chk
#p cam-b3lyp/6-31+G(d,p) nosymm charge Freq 

Calculation for S0 with freq for abs spect

0  1
 C         16.13786       17.51099       15.84572
 C         17.92326       15.96564       16.39140
 C         17.16508       15.44309       17.39963
 C         15.71166       15.67772       17.48658
 N         15.35067       16.82832       16.71367
 H         18.90430       15.49581       16.18259
 H         17.57878       14.73621       18.08825
 O         14.86032       15.11712       18.06124
 O         15.77401       18.50130       15.22067
 N         17.46211       16.98974       15.66137
 H         18.15746       17.49352       15.14926
 H         14.33320       17.11309       16.77101
 O         13.28373       14.49456       20.54613
 H         13.65604       14.61803       19.67299
 H         13.98080       14.76345       21.14448
 O         21.41165       15.88413       17.55900
 H         21.77563       15.61232       18.40154
 H         20.95192       16.70197       17.74880
 O         15.25504       19.63130       19.91565
 H         15.62359       20.21072       19.24881
 H         14.32446       19.85420       19.93950
 O         13.55163       16.59918       14.21026
 H         14.18560       17.13639       14.68536
 H         13.98802       15.75446       14.09958
 O         12.74956       18.84240       17.21398
 H         12.53244       17.92850       17.39806
 H         12.79049       19.25756       18.07549
 O         19.54500       15.93222       12.48813
 H         19.74179       16.40575       11.67988
 H         18.61523       16.09851       12.64339
 O         19.41810       18.47331       14.04516
 H         19.99347       17.78992       13.70142
 H         20.01226       19.10930       14.44355
 O         18.72375       17.69280       20.86018
 H         19.19745       18.52456       20.85624
 H         19.40549       17.02791       20.76329
 O         18.44489       20.41673       16.68395
 H         18.71965       21.25383       17.05811
 H         17.62232       20.21330       17.12918
 O         16.65024       16.00007       13.17880
 H         15.96813       15.47468       13.59704
 H         16.29673       16.20770       12.31384
 O         19.73140       13.64943       14.06034
 H         20.64859       13.50188       13.82964
 H         19.53879       14.52660       13.72924
 O         14.95928       14.11069       14.25214
 H         14.79495       13.62671       13.44282
 H         14.75881       13.48675       14.94981
 O         20.07308       18.08362       18.34658
 H         19.48157       18.46934       18.99278
 H         19.63524       18.22334       17.50693
 O         15.68250       20.31562       17.37934
 H         15.58229       19.81376       16.57043
 H         15.48728       21.21823       17.12751
 O         17.32692       20.10589       12.91712
 H         18.11356       19.57298       13.03305
 H         16.77459       19.88476       13.66696
 O         15.00813       12.45508       16.84419
 H         14.24289       12.07688       16.41104
 H         14.68523       12.73481       17.70076
 O         17.65509       11.64440       16.62673
 H         18.07284       12.50563       16.62933
 H         16.73274       11.82561       16.44600
 O         12.41042       16.29075       17.49539
 H         11.97612       15.72194       16.85972
 H         12.99887       15.70839       17.97582
 
       27.40954       17.12093       11.09315       -0.834
       28.09526       16.78913       11.67274        0.417
       26.92079       17.74350       11.63145        0.417
       19.24583       20.83053        5.54133       -0.834
       19.12049       19.94492        5.20041        0.417
       18.53696       20.94671        6.17396        0.417
       24.22242       20.75447       28.42219       -0.834
       23.57212       21.31853       28.84072        0.417
       24.49793       21.24122       27.64541        0.417
        9.57579       24.29753       16.79228       -0.834
       10.28099       23.89328       16.28681        0.417
        9.59865       23.84882       17.63748        0.417
       23.31567       18.58112        5.12067       -0.834
       24.14283       18.20385        5.42016        0.417
       22.67748       18.31683        5.78331        0.417
       11.86701        8.14150       25.09483       -0.834
       11.57696        8.72448       24.39323        0.417
       12.64043        7.70400       24.73896        0.417
       19.98333       23.14051       12.04893       -0.834
       19.13627       22.73674       12.23786        0.417
       19.82907       24.07988       12.14901        0.417
        3.98735       19.55884       11.69099       -0.834
        3.93382       20.08801       10.89516        0.417
        4.85013       19.75842       12.05431        0.417
       13.46450       13.35883        7.05561       -0.834
       12.93556       12.57779        6.89300        0.417
       14.36894       13.04703        7.02393        0.417
       21.90767       16.65091        2.88287       -0.834
       21.82084       16.57850        3.83336        0.417
       21.87498       15.74710        2.56935        0.417
       26.44946       14.50151       10.24194       -0.834
       27.03172       14.04971        9.63117        0.417
       26.81570       15.38284       10.31518        0.417
       25.06598        6.59324       23.34630       -0.834
       24.22837        6.95469       23.63612        0.417
       25.17928        5.80019       23.87019        0.417
       16.13790       10.44590       19.85883       -0.834
       16.61699        9.73299       20.28127        0.417
       15.58117       10.01119       19.21283        0.417
        8.15771        9.81795       13.34932       -0.834
        7.69899        8.97801       13.33201        0.417
        8.14105       10.08158       14.26935        0.417
       18.59981       22.83887        3.70356       -0.834
       19.08665       22.19190        4.21410        0.417
       17.77624       22.94919        4.17874        0.417
       25.85992       21.26137        6.20313       -0.834
       25.48635       22.14180        6.24221        0.417
       25.81074       21.02066        5.27800        0.417
       10.73179       18.30855        4.33091       -0.834
        9.83447       18.64014        4.36403        0.417
       11.15980       18.84101        3.66044        0.417
       10.53223       11.97924        7.12080       -0.834
        9.83339       11.41967        6.78208        0.417
       10.09585       12.80284        7.33871        0.417
       26.25534       27.48855       20.45415       -0.834
       26.61711       27.94770       19.69616        0.417
       26.27938       26.56373       20.20847        0.417
       27.37077        6.87210       21.62304       -0.834
       26.49260        6.89062       22.00343        0.417
       27.86242        7.52413       22.12242        0.417
       22.86820       22.98237        6.50470       -0.834
       22.31705       22.49887        7.12008        0.417
       23.68289       23.13725        6.98275        0.417
       25.29677       19.10794        8.08878       -0.834
       24.47299       19.34649        8.51388        0.417
       25.49364       19.84807        7.51460        0.417
       12.94337       11.52103       14.99770       -0.834
       12.25159       10.95800       14.65032        0.417
       12.65402       12.41037       14.79377        0.417
       15.98897       28.32084       10.03910       -0.834
       15.48771       27.61847        9.62480        0.417
       16.45945       27.89087       10.75325        0.417
        7.18299       10.74990       15.97834       -0.834
        7.06243        9.81712       16.15616        0.417
        6.32146       11.13709       16.13351        0.417
       25.35431       22.22125       26.09412       -0.834
       25.96661       21.53001       26.34613        0.417
       24.92650       21.88719       25.30570        0.417
       17.87854       25.00721       18.49132       -0.834
       18.77087       25.32836       18.36156        0.417
       17.47752       25.05552       17.62352        0.417
       24.60767       13.75829       22.06523       -0.834
       24.17292       14.38785       22.64040        0.417
       25.13570       13.21967       22.65456        0.417
       11.84240        9.35025        6.83926       -0.834
       11.51878       10.21177        6.57603        0.417
       12.42101        9.52756        7.58088        0.417
       14.01591        4.77559       12.50758       -0.834
       13.27388        4.30662       12.12588        0.417
       14.51979        4.09946       12.96056        0.417
       12.17621       19.15985       24.35654       -0.834
       12.52391       18.30263       24.60251        0.417
       12.80021       19.49640       23.71343        0.417
       21.75808       22.62828        3.73190       -0.834
       22.06718       22.48388        4.62624        0.417
       21.05456       21.98981        3.61511        0.417
       13.94715       14.88598       29.89006       -0.834
       13.90273       15.51482       30.61036        0.417
       13.09434       14.45139       29.89796        0.417
       12.06948        4.84098       14.60240       -0.834
       12.68090        4.74425       13.87230        0.417
       11.27023        5.18343       14.20229        0.417
       14.41140       22.91631        7.72547       -0.834
       15.00136       23.66095        7.60848        0.417
       13.53454       23.28672        7.62472        0.417
        3.07945       18.29675       23.39056       -0.834
        3.56046       17.46940       23.40925        0.417
        3.45483       18.80883       24.10687        0.417
        9.56105       10.12816       25.49986       -0.834
        9.16828       10.98934       25.35725        0.417
       10.47358       10.31422       25.72097        0.417
        9.32335       18.66061       23.16852       -0.834
        9.10959       17.96488       22.54682        0.417
       10.25498       18.82985       23.02829        0.417
       13.57726       13.19238       11.89284       -0.834
       13.88823       13.92071       11.35518        0.417
       12.63394       13.16198       11.73329        0.417
       28.82079       18.48617       18.19493       -0.834
       28.38240       19.30924       18.41080        0.417
       28.11068       17.84885       18.11869        0.417
        7.72004       15.48752       17.31682       -0.834
        6.95152       14.99634       17.02639        0.417
        7.53880       15.69705       18.23305        0.417
       17.20255       17.03068       29.81661       -0.834
       17.72417       16.30750       30.16469        0.417
       17.82051       17.54313       29.29529        0.417
       24.26892       11.45962       15.14145       -0.834
       24.03850       10.61363       14.75746        0.417
       24.09605       12.09399       14.44581        0.417
       24.24471       16.17308       24.23033       -0.834
       23.69281       16.45132       23.49942        0.417
       24.11884       16.84853       24.89678        0.417
       17.39119       24.10597       10.29686       -0.834
       16.94899       23.37651       10.73113        0.417
       16.68028       24.66163        9.97737        0.417
       11.16628       26.85898       18.02257       -0.834
       10.85383       27.55465       18.60106        0.417
       10.56971       26.12774       18.18263        0.417
       15.68869        9.28444       10.76289       -0.834
       15.00371        9.46328       11.40713        0.417
       16.49371        9.59762       11.17532        0.417
       19.70902       24.74405        6.17284       -0.834
       19.15093       25.43854        6.52275        0.417
       20.44485       25.20663        5.77184        0.417
        6.16618       24.00549       22.47891       -0.834
        6.15695       24.62188       21.74664        0.417
        6.49690       24.51589       23.21806        0.417
       24.26264        7.98536       20.52237       -0.834
       24.31862        7.33463       21.22211        0.417
       24.89191        8.66178       20.77278        0.417
       18.29593       29.53399       15.64737       -0.834
       17.48500       29.79055       15.20828        0.417
       18.44043       28.62801       15.37433        0.417
       14.40381       10.69815       12.84416       -0.834
       13.99012       10.64208       13.70552        0.417
       14.03847       11.49206       12.45369        0.417
       16.55332       14.66143       28.64670       -0.834
       15.73292       14.83728       29.10740        0.417
       17.06392       15.46434       28.75089        0.417
       12.85834        9.01043       27.40342       -0.834
       12.73998        8.79490       26.47834        0.417
       12.23359        9.71692       27.56707        0.417
       10.10800       19.84963       26.54424       -0.834
       10.17906       19.31824       25.75127        0.417
       10.76514       20.53658       26.43248        0.417
       20.28286       26.32257       18.14602       -0.834
       20.37510       27.27322       18.20929        0.417
       20.42226       26.12910       17.21900        0.417
       15.89140        9.61692        8.12685       -0.834
       16.03823        9.23836        8.99366        0.417
       16.07758        8.90208        7.51811        0.417
        7.13682       18.89982       24.77807       -0.834
        7.68990       18.52168       24.09444        0.417
        6.92043       19.77455       24.45519        0.417
       23.48707       23.48100       16.03620       -0.834
       23.87060       22.91175       15.36909        0.417
       22.71550       23.85910       15.61441        0.417
        7.18721        9.64620       23.78016       -0.834
        7.84166        9.89544       24.43270        0.417
        6.48998       10.29441       23.87982        0.417
       27.24725       19.66933       21.24405       -0.834
       26.36126       19.48718       21.55720        0.417
       27.60497       18.80959       21.02246        0.417
       20.56951       27.04947       22.19045       -0.834
       21.14191       26.66709       22.85556        0.417
       19.85950       27.45418       22.68878        0.417
       11.48497       21.96515       28.57871       -0.834
       11.17862       22.65510       27.99019        0.417
       11.55944       22.39292       29.43177        0.417
       15.77383        3.21334       20.34447       -0.834
       15.03075        3.44862       20.90008        0.417
       16.27045        2.58047       20.86320        0.417
       30.74858       13.17615       16.83014       -0.834
       30.89268       13.29184       15.89095        0.417
       31.04632       13.99735       17.22157        0.417
       19.50125       26.43156       24.87476       -0.834
       19.68259       25.49571       24.96158        0.417
       18.55204       26.48266       24.76237        0.417
       23.07507        7.13870        7.38179       -0.834
       23.78328        7.69551        7.70526        0.417
       23.07163        6.38658        7.97385        0.417
       22.40828       29.07521       20.75277       -0.834
       22.18529       28.14848       20.66511        0.417
       21.58229       29.49995       20.98418        0.417
       11.16578       14.38326        9.08691       -0.834
       11.81168       14.12459        8.42960        0.417
       10.86395       13.55731        9.46489        0.417
       12.28001        3.13199       16.82258       -0.834
       12.00629        3.65418       17.57665        0.417
       12.40007        3.77033       16.11948        0.417
        9.76626        6.86092       26.19587       -0.834
       10.66303        7.17017       26.06781        0.417
        9.32608        7.58132       26.64698        0.417
       26.55428       19.81328       27.12361       -0.834
       27.49633       19.82327       27.29298        0.417
       26.15394       19.83444       27.99281        0.417
       19.58280       28.14173        9.54617       -0.834
       19.64640       27.55275       10.29803        0.417
       20.49116       28.30947        9.29521        0.417
       23.36665       20.03315        2.81662       -0.834
       23.10316       19.41908        2.13126        0.417
       23.30725       19.52781        3.62739        0.417
       14.53047       11.47199       26.88028       -0.834
       15.45084       11.72976       26.93218        0.417
       14.52244       10.55455       27.15317        0.417
       27.82964        8.58917       15.97863       -0.834
       27.84613        9.40535       16.47843        0.417
       28.72352        8.25230       16.03967        0.417
       12.41539       11.75661        4.47942       -0.834
       12.80910       12.62906        4.47156        0.417
       11.74323       11.79051        3.79877        0.417
       23.88503        9.62276        9.28495       -0.834
       23.28130        9.10490        9.81745        0.417
       23.43991       10.46158        9.16466        0.417
       27.52865       23.80679        9.62826       -0.834
       28.39826       24.13516        9.39982        0.417
       27.65025       22.86415        9.74173        0.417
        6.58228       18.98791        8.81175       -0.834
        6.67034       19.93761        8.73084        0.417
        5.65820       18.81627        8.63050        0.417
       22.96567        9.42191        5.45812       -0.834
       22.64948        8.76788        6.08142        0.417
       22.22033        9.58174        4.87919        0.417
       10.15216        6.55418       20.06947       -0.834
        9.94292        7.21495       20.72964        0.417
        9.93434        5.72069       20.48672        0.417
       21.59822       25.48521       10.18009       -0.834
       22.21924       25.67269        9.47623        0.417
       20.95374       24.90008        9.78196        0.417
       29.04011       20.10252       12.03887       -0.834
       28.46262       19.36737       12.24451        0.417
       29.91168       19.80252       12.29695        0.417
       11.14271       13.77345       23.37694       -0.834
       11.23881       13.12399       24.07350        0.417
       12.04022       14.01698       23.15040        0.417
        9.81568        6.34252       13.26633       -0.834
       10.55448        6.75373       12.81767        0.417
        9.07560        6.46476       12.67171        0.417
       17.30742        3.06043       14.10575       -0.834
       17.23494        2.14307       14.36924        0.417
       16.48305        3.45693       14.38757        0.417
       13.96138       26.70543        9.05103       -0.834
       13.37526       25.94885        9.03403        0.417
       13.42521       27.43158        8.73251        0.417
       18.16891       21.42289       22.45840       -0.834
       17.48209       20.84376       22.12807        0.417
       18.69751       20.86641       23.03037        0.417
       25.91889       17.40708       18.39880       -0.834
       26.09996       16.71238       17.76569        0.417
       25.69410       16.94380       19.20569        0.417
       17.83406       27.32429        7.29910       -0.834
       18.44395       27.52150        8.00999        0.417
       18.23057       27.72389        6.52493        0.417
       23.22619        5.42740        9.58051       -0.834
       23.60783        4.55408        9.66937        0.417
       22.36666        5.35708        9.99585        0.417
        3.25563        9.11956       18.61453       -0.834
        3.73279        9.06808       19.44272        0.417
        3.35959       10.02873       18.33377        0.417
       11.89858       27.97012       21.69096       -0.834
       11.60556       28.68406       22.25723        0.417
       11.81317       28.31752       20.80312        0.417
       18.72897       18.31615        4.85403       -0.834
       17.82951       18.04069        4.67702        0.417
       19.11016       17.58908        5.34625        0.417
        8.16124       12.48832       24.49990       -0.834
        7.32857       12.89498       24.73973        0.417
        8.71199       13.21819       24.21670        0.417
       14.92474       31.32398       13.62237       -0.834
       14.61293       30.45175       13.86367        0.417
       14.16095       31.75398       13.23771        0.417
       13.98132       13.85904       23.85436       -0.834
       14.48968       14.20341       23.12007        0.417
       14.41024       14.21653       24.63183        0.417
       26.75584       12.04796       16.22327       -0.834
       27.13025       12.52345       15.48173        0.417
       25.85224       11.86975       15.96256        0.417
       23.99838       26.83896        8.86583       -0.834
       23.29263       27.48467        8.83107        0.417
       24.77355       27.31437        8.56695        0.417
        8.92044       17.83835       16.44328       -0.834
        8.37638       17.09330       16.69848        0.417
        9.56402       17.46950       15.83837        0.417
       14.29030       30.26960       22.07686       -0.834
       14.47365       30.97436       21.45563        0.417
       13.89854       29.57681       21.54507        0.417
       26.43668       11.06337        9.45896       -0.834
       27.00321       10.29258        9.42507        0.417
       25.58104       10.74515        9.17113        0.417
        8.05785       15.10693        5.30955       -0.834
        7.66991       14.28278        5.60370        0.417
        8.34355       15.53855        6.11473        0.417
       19.98566       23.43852       21.79454       -0.834
       19.16863       22.94056       21.82113        0.417
       20.56678       22.91682       21.24104        0.417
       28.75921       11.16342       12.60328       -0.834
       27.96274       10.68048       12.82384        0.417
       28.92949       10.94030       11.68816        0.417
       25.84451       26.94853       12.78426       -0.834
       26.04457       26.70351       11.88084        0.417
       26.30719       26.30134       13.31652        0.417
       11.95744       23.66733       15.10975       -0.834
       11.66331       23.79150       14.20736        0.417
       12.17173       22.73614       15.16634        0.417
       13.41516       20.67817        8.69394       -0.834
       13.95594       21.39952        8.37231        0.417
       13.05366       20.27810        7.90306        0.417
        6.65642        7.40253       12.63374       -0.834
        5.95848        7.86346       12.16827        0.417
        6.20911        6.94717       13.34704        0.417
       17.96010        9.10780       15.78760       -0.834
       17.83963        8.66362       16.62685        0.417
       17.96164       10.03947       16.00714        0.417
       11.47273       20.32139       12.84224       -0.834
       12.21594       20.64094       12.33062        0.417
       11.32962       19.42932       12.52610        0.417
       22.62066       18.82704       19.66566       -0.834
       21.85880       18.64964       19.11400        0.417
       23.22778       19.29565       19.09292        0.417
        2.52330       16.18253       17.75337       -0.834
        2.32921       15.70782       18.56158        0.417
        2.74309       15.49894       17.12041        0.417
       17.42424        9.41576        5.18406       -0.834
       16.50154        9.17450        5.26555        0.417
       17.80281        9.20865        6.03848        0.417
        7.14667       23.98006       15.84716       -0.834
        6.74101       23.35539       16.44838        0.417
        7.97370       24.21545       16.26768        0.417
       26.62145       15.09989       24.85723       -0.834
       26.36653       14.32712       25.36129        0.417
       25.79246       15.48816       24.57749        0.417
        6.82877        8.09649       16.82630       -0.834
        7.75762        7.91901       16.67806        0.417
        6.67658        7.83566       17.73461        0.417
       10.93194       16.95816        8.73346       -0.834
       11.43962       17.13136        7.94072        0.417
       10.96085       16.00668        8.83387        0.417
       12.65473       14.71268        3.79273       -0.834
       12.84480       14.80578        2.85923        0.417
       13.37040       15.17356        4.23050        0.417
        8.49270        7.11128       10.37299       -0.834
        8.82022        8.00083       10.24008        0.417
        7.83699        7.19785       11.06493        0.417
       13.87819        7.21229       21.61188       -0.834
       13.99438        7.18449       22.56159        0.417
       13.41230        8.03284       21.45102        0.417
       21.07664        8.82329       25.05379       -0.834
       20.69260        9.03457       24.20285        0.417
       20.40036        8.31630       25.50307        0.417
       19.55116       28.97362       19.00801       -0.834
       19.72848       29.44430       19.82242        0.417
       19.58895       29.64686       18.32863        0.417
       16.26713       22.96904       23.77461       -0.834
       16.86477       22.38806       23.30396        0.417
       16.59623       22.97484       24.67343        0.417
       17.11139       25.20024       27.86113       -0.834
       16.35893       24.61610       27.95509        0.417
       16.75660       25.98259       27.43888        0.417
       13.99382       20.45172       11.49546       -0.834
       14.03117       20.45153       10.53899        0.417
       14.55140       19.71915       11.75754        0.417
        9.60982        5.19990        8.97967       -0.834
        9.20362        4.38995        9.28823        0.417
        9.11729        5.89612        9.41433        0.417
       17.76716       18.21236       10.92571       -0.834
       17.59638       18.96749       10.36282        0.417
       17.05084       18.21940       11.56058        0.417
       21.92042       11.87928        9.46442       -0.834
       21.07401       12.05370        9.05283        0.417
       21.78345       12.08158       10.38992        0.417
       26.59559       13.67890       18.39478       -0.834
       26.16713       14.46205       18.04946        0.417
       26.63793       13.08004       17.64925        0.417
       18.50318       14.04028        4.32431       -0.834
       18.37684       14.66106        5.04184        0.417
       19.17445       13.43742        4.64397        0.417
        3.53741       20.44789       18.55070       -0.834
        3.43651       20.08142       19.42919        0.417
        2.78923       21.03614       18.44867        0.417
       16.60585       21.49633        6.04258       -0.834
       16.02954       21.54052        6.80556        0.417
       16.27671       22.17527        5.45356        0.417
        7.75844       23.57154       12.52915       -0.834
        6.84197       23.30715       12.60921        0.417
        8.25446       22.76728       12.68198        0.417
       20.02344        8.58982       19.63251       -0.834
       19.49474        8.65306       18.83708        0.417
       20.71097        9.24561       19.51646        0.417
       15.43492       12.57659        4.80811       -0.834
       16.10086       12.85391        4.17895        0.417
       14.97744       11.85767        4.37211        0.417
       16.72513       11.78709       30.13896       -0.834
       16.71804       12.19635       29.27369        0.417
       15.83268       11.90114       30.46569        0.417
        4.43256       16.79957       10.64148       -0.834
        5.33011       16.70825       10.96132        0.417
        3.98184       17.29078       11.32835        0.417
       15.44377       18.72354       24.39924       -0.834
       15.53386       18.32926       23.53168        0.417
       16.32657       18.69599       24.76821        0.417
       14.72968        3.74259       23.87475       -0.834
       14.14317        3.82742       23.12306        0.417
       14.14443        3.65988       24.62766        0.417
       22.30205       12.83372       27.64219       -0.834
       22.64440       12.51607       28.47773        0.417
       21.72291       12.13461       27.33878        0.417
       16.72422       19.76295       28.51117       -0.834
       17.47087       19.22276       28.25243        0.417
       15.98649       19.40502       28.01734        0.417
        9.45668       16.27927       26.17023       -0.834
        8.91459       16.38572       25.38854        0.417
        8.97552       16.73633       26.86002        0.417
       17.50953       30.08676       12.91417       -0.834
       16.65314       30.50484       13.00383        0.417
       17.31602       29.21470       12.57023        0.417
       26.69349        6.11252       18.23972       -0.834
       26.78579        7.04864       18.41690        0.417
       26.33900        6.07018       17.35159        0.417
       27.96200       14.21623        7.88658       -0.834
       28.52035       14.99075        7.95432        0.417
       28.54890       13.52299        7.58469        0.417
       22.10998       29.14158       13.41600       -0.834
       21.54690       29.67944       12.85932        0.417
       22.68095       29.76986       13.85815        0.417
       21.75115       24.72773       14.47520       -0.834
       21.67528       25.67519       14.58833        0.417
       22.44226       24.61862       13.82199        0.417
       22.53451       12.60973       24.01256       -0.834
       23.09783       12.88004       24.73771        0.417
       22.56692       11.65319       24.02716        0.417