%Nproc=32
%Mem=120Gb
%chk=temp.chk
#p cam-b3lyp/6-31+G(d,p) nosymm charge Freq 

Calculation for S0 with freq for abs spect

0  1
 C         16.84542       15.24884       16.37747
 C         17.60465       17.27777       17.39031
 C         16.64573       18.02168       16.85088
 C         15.61535       17.35653       16.13219
 N         15.84129       16.00803       15.79955
 H         18.45773       17.69311       18.00249
 H         16.56885       19.07705       17.05635
 O         14.58137       17.87604       15.68896
 O         16.96541       14.05654       16.11593
 N         17.77553       15.94430       17.07229
 H         18.55222       15.40607       17.43811
 H         15.23752       15.58891       15.13110
 O         12.10626       17.03242       18.55474
 H         12.73043       16.58765       19.12818
 H         12.31308       16.70875       17.67799
 O         15.98020       20.92770       14.41767
 H         16.07351       20.07134       14.00032
 H         16.03661       20.74500       15.35558
 O         16.83292       11.33334       16.28277
 H         16.73354       12.28245       16.20819
 H         16.20038       10.97611       15.65946
 O         17.13319       18.55138       12.18039
 H         17.24691       17.68785       11.78336
 H         16.96572       19.13541       11.44073
 O         18.53547       15.07765       20.13528
 H         18.72417       14.16795       19.90488
 H         19.37706       15.52593       20.05160
 O         19.77470       13.96335       15.37055
 H         20.06371       14.38199       14.55972
 H         18.81895       13.99837       15.33127
 O         17.93777       15.56106       11.88784
 H         18.80762       15.86935       12.14191
 H         17.73422       14.87043       12.51859
 O         20.68952       16.83459       17.27151
 H         20.86426       16.60884       18.18514
 H         21.55212       17.02226       16.90146
 O         15.78213       18.55622       20.33924
 H         15.03263       18.97013       20.76722
 H         16.49675       19.18386       20.44697
 O         16.82721       13.50920       13.44977
 H         16.22179       13.57048       14.18865
 H         16.46251       12.81775       12.89740
 O         12.23282       18.78781       16.34524
 H         13.12056       18.49581       16.13813
 H         12.07746       18.47105       17.23505
 O         12.58811       15.53021       16.11881
 H         12.96513       15.47902       15.24047
 H         13.01684       14.82618       16.60540
 O         15.88626       14.24542       19.81666
 H         16.78258       14.55802       19.93967
 H         15.95503       13.29221       19.87042
 O         14.16513       12.57984       15.31635
 H         13.29958       12.67551       14.91898
 H         14.08422       13.00103       16.17208
 O         14.18209       13.83121       17.84337
 H         13.55612       13.49606       18.48529
 H         15.01209       13.87567       18.31809
 O         13.96180       15.65888       13.61657
 H         14.33081       15.54187       12.74114
 H         13.32306       16.36458       13.51541
 O         20.05596       13.34902       18.01662
 H         20.94385       13.69686       18.09965
 H         19.88442       13.35127       17.07492
 O         14.03793       16.23879       20.58700
 H         14.55785       15.45974       20.38953
 H         14.65700       16.96522       20.51437
 O         20.27404       19.42916       16.00838
 H         20.24416       18.57781       16.44489
 H         20.54860       19.23037       15.11321
 
       15.04538       15.41842       11.14124       -0.834
       14.99247       16.29039       10.74996        0.417
       15.97132       15.30814       11.35736        0.417
       16.34271       10.61636       19.04530       -0.834
       16.55346       10.90848       18.15847        0.417
       17.02642       11.00126       19.59359        0.417
        3.97347        8.25520       15.96859       -0.834
        3.04150        8.21160       16.18253        0.417
        4.19767        9.18125       16.06022        0.417
       11.41481       20.79994        9.31415       -0.834
       11.37151       20.04278        9.89815        0.417
       11.62039       21.53606        9.89043        0.417
       17.65522       12.23584       20.85742       -0.834
       16.94541       12.20459       21.49885        0.417
       18.45485       12.21364       21.38309        0.417
       29.12601       16.02678        6.96452       -0.834
       28.30634       16.13120        7.44772        0.417
       29.44587       16.92014        6.83868        0.417
        9.60860       20.73318        4.49689       -0.834
        9.51735       21.06602        5.38971        0.417
        9.33220       19.81844        4.55236        0.417
        6.05943       21.64978       18.90912       -0.834
        6.40534       21.00517       18.29182        0.417
        6.55455       21.50048       19.71460        0.417
       17.51898       19.79666       29.66846       -0.834
       18.07478       20.12296       30.37621        0.417
       18.05845       19.14500       29.22064        0.417
        3.88767        8.51470       19.93257       -0.834
        3.47865        8.01770       20.64103        0.417
        4.52387        9.07923       20.37165        0.417
       23.61474       14.45769       20.64671       -0.834
       23.91758       13.70923       20.13258        0.417
       24.41452       14.93160       20.87470        0.417
       23.48128       25.81140       20.22230       -0.834
       23.21211       26.07987       21.10077        0.417
       24.32126       26.24917       20.08440        0.417
        9.84637       29.34269       18.26053       -0.834
        9.46858       29.04280       17.43374        0.417
        9.08969       29.53897       18.81293        0.417
       14.29589       26.40610       25.29424       -0.834
       14.06738       25.74189       25.94450        0.417
       13.74736       27.15836       25.51661        0.417
       27.89702        6.46947       18.55938       -0.834
       27.50444        6.92737       19.30264        0.417
       27.21987        6.48507       17.88303        0.417
        7.90400       16.16259       23.66377       -0.834
        7.52824       15.91636       24.50899        0.417
        8.08148       15.32899       23.22805        0.417
       26.20689       28.35016       16.72882       -0.834
       25.86761       28.57515       17.59513        0.417
       26.63936       27.50523       16.85246        0.417
       12.45992        9.36640        9.97454       -0.834
       12.42514        9.15601       10.90769        0.417
       11.55390        9.28584        9.67644        0.417
        2.97194       14.82215       16.83474       -0.834
        2.80211       13.88096       16.87430        0.417
        3.08060       15.08503       17.74869        0.417
       15.77915       23.94801       15.08334       -0.834
       15.20528       24.46038       15.65289        0.417
       15.78685       23.07415       15.47390        0.417
       14.35434       10.17533       29.45494       -0.834
       15.14765       10.54787       29.07010        0.417
       14.32102        9.28044       29.11688        0.417
       11.32655        3.61722       11.61503       -0.834
       11.10381        4.38400       11.08714        0.417
       10.61927        3.55409       12.25691        0.417
       20.28109       11.46319       25.93148       -0.834
       19.88733       12.29004       25.65307        0.417
       20.75304       11.68078       26.73531        0.417
       14.75216       15.09892        6.24479       -0.834
       14.45539       15.48494        5.42068        0.417
       13.98181       14.64718        6.58935        0.417
        7.78019        7.14866       20.13322       -0.834
        8.44947        7.13714       20.81745        0.417
        7.08843        6.57598       20.46449        0.417
       23.13953        9.23345       11.78511       -0.834
       23.64574        8.44340       11.97433        0.417
       23.58861        9.63362       11.04052        0.417
       19.94486       15.35369        5.52026       -0.834
       19.00176       15.41257        5.67298        0.417
       20.12893       14.41437        5.51494        0.417
       17.10345       12.10322       10.29615       -0.834
       16.68008       11.24750       10.22724        0.417
       17.95840       11.91741       10.68442        0.417
        9.82895        7.93113       16.15379       -0.834
       10.18946        7.05425       16.28554        0.417
       10.25987        8.25118       15.36126        0.417
       10.01730        6.76476       26.21625       -0.834
       10.75150        7.37550       26.28078        0.417
        9.79463        6.56036       27.12447        0.417
        7.97595       19.75288       25.83947       -0.834
        8.08449       19.32086       26.68670        0.417
        7.98678       19.03838       25.20260        0.417
       23.16324       17.52020       16.24543       -0.834
       24.08465       17.43971       16.49191        0.417
       23.18315       17.84003       15.34347        0.417
        7.08614       10.83694       18.98263       -0.834
        6.47952       10.60407       18.27976        0.417
        7.69658       10.10095       19.02645        0.417
       27.78041       14.55348       15.39724       -0.834
       28.44409       13.87807       15.53718        0.417
       28.27862       15.33085       15.14481        0.417
        2.44189       19.45892       21.79226       -0.834
        3.23869       18.95121       21.63872        0.417
        2.52824       20.22036       21.21868        0.417
        4.67443       16.12668       23.50030       -0.834
        5.50847       16.25415       23.95244        0.417
        4.56680       16.91522       22.96845        0.417
       17.18999        3.55578       17.56865       -0.834
       17.42252        3.08966       18.37171        0.417
       17.89723        4.18888       17.44529        0.417
       29.64098       10.46143       17.71720       -0.834
       30.07146       10.18773       18.52714        0.417
       29.06262       11.17647       17.98260        0.417
       23.59678        8.45571       20.08321       -0.834
       23.63886        9.38883       19.87407        0.417
       22.69106        8.20855       19.89659        0.417
       25.09481       23.81838        6.80509       -0.834
       24.54108       23.69482        6.03415        0.417
       25.47414       22.95497        6.96898        0.417
       20.42959       12.80959        5.76354       -0.834
       20.45054       12.51978        6.67557        0.417
       20.99805       12.19268        5.30257        0.417
       29.41711       12.62759       22.05993       -0.834
       28.80477       13.33425       22.26461        0.417
       30.25341       13.06961       21.91350        0.417
       10.02190        8.20298       19.05376       -0.834
        9.11303        8.08815       19.33126        0.417
       10.00265        8.06666       18.10651        0.417
       20.41310       18.72069       13.45162       -0.834
       19.97544       19.27928       12.80923        0.417
       20.18971       17.82870       13.18579        0.417
        2.64451       21.63110       20.07154       -0.834
        3.51095       21.99537       20.25270        0.417
        2.72730       21.23496       19.20410        0.417
       17.33704       18.90222       23.68665       -0.834
       17.51974       18.07462       23.24175        0.417
       16.47201       18.77874       24.07743        0.417
       23.90767       12.41885       13.27309       -0.834
       23.31501       12.39283       14.02429        0.417
       24.58797       11.77866       13.48185        0.417
       19.02956        2.92926       20.17119       -0.834
       19.77428        3.53050       20.15933        0.417
       18.28271        3.47704       20.41282        0.417
       12.43163        9.79388       19.31408       -0.834
       13.30059        9.45650       19.09658        0.417
       11.85643        9.03103       19.25552        0.417
       23.93192       27.27090        9.71748       -0.834
       23.46527       27.03348       10.51879        0.417
       23.30654       27.80138        9.22379        0.417
       20.23177        6.60360        6.51012       -0.834
       20.70786        6.75021        7.32747        0.417
       20.91621        6.47315        5.85380        0.417
        8.47780       18.29390       28.09516       -0.834
        8.72309       17.37026       28.04093        0.417
        8.95002       18.62312       28.85991        0.417
       20.62652       23.26224       25.98434       -0.834
       20.62302       23.27087       25.02719        0.417
       21.16194       24.01696       26.22919        0.417
       27.81847       12.53077       19.69598       -0.834
       28.48816       12.55719       20.37940        0.417
       27.39265       11.68112       19.80996        0.417
       29.06537       11.99680       15.26114       -0.834
       29.39101       11.28060       15.80635        0.417
       29.49833       11.87155       14.41669        0.417
       15.35018        6.46867        4.79370       -0.834
       16.12865        5.98230        4.52229        0.417
       15.58221        6.83652        5.64639        0.417
       19.55679       20.57722       11.12229       -0.834
       20.33037       21.01743       11.47446        0.417
       18.82729       21.15201       11.35396        0.417
       14.66441       25.48868       17.65917       -0.834
       14.57917       25.17383       18.55908        0.417
       13.99980       26.17302       17.58038        0.417
        7.29473        7.95398       17.55020       -0.834
        7.08652        7.17008       18.05851        0.417
        7.79355        7.62861       16.80083        0.417
       17.96058       22.39961       12.42013       -0.834
       18.01652       23.31982       12.67762        0.417
       17.32999       22.01751       13.03054        0.417
       20.28404        9.47904        9.46892       -0.834
       19.51242        8.96897        9.71520        0.417
       20.72334        9.66548       10.29867        0.417
       22.55394       24.13071        5.30639       -0.834
       21.84083       23.89641        4.71242        0.417
       22.12525       24.59770        6.02360        0.417
       20.74235       12.08567        8.66549       -0.834
       20.45878       11.26178        9.06177        0.417
       21.40581       12.42507        9.26621        0.417
       26.02375       24.95343       10.51344       -0.834
       25.58034       25.69453       10.10065        0.417
       25.88436       25.08260       11.45158        0.417
       24.37324        3.44946       13.55016       -0.834
       24.89859        4.12878       13.97296        0.417
       23.50592        3.53580       13.94581        0.417
       16.43529       23.40285       22.40450       -0.834
       15.56719       23.15705       22.72420        0.417
       16.62583       24.23288       22.84150        0.417
       27.76845        8.42941       16.04256       -0.834
       28.65907        8.16185       16.26936        0.417
       27.75465        9.37380       16.19802        0.417
        4.60570       22.31705       15.62066       -0.834
        4.44386       21.40610       15.86603        0.417
        3.73739       22.67233       15.43076        0.417
        2.89681       21.79116       10.86360       -0.834
        3.58266       21.61459       11.50755        0.417
        2.18628       21.19500       11.10019        0.417
        6.64064       25.23318       21.93100       -0.834
        6.81151       26.07953       21.51780        0.417
        6.26942       24.69528       21.23165        0.417
       29.71912       16.66176       15.15162       -0.834
       29.71024       17.44564       14.60237        0.417
       29.62761       16.99352       16.04481        0.417
       29.68446       19.19335       14.20837       -0.834
       29.06728       19.91040       14.35381        0.417
       30.39189       19.58568       13.69667        0.417
       28.41487       15.03500       23.32476       -0.834
       28.10229       15.92874       23.46525        0.417
       28.06934       14.54033       24.06782        0.417
       11.70128       26.38216        9.09878       -0.834
       10.98490       26.58227        8.49630        0.417
       12.22937       27.18029        9.11722        0.417
       11.76785        8.85238       26.26879       -0.834
       12.41496        9.36401       25.78329        0.417
       10.93038        9.26818       26.06388        0.417
       15.32417       21.61617       25.85671       -0.834
       16.06672       22.09240       26.22825        0.417
       14.64334       22.28017       25.74803        0.417
       11.78109       28.28834       22.78300       -0.834
       11.55137       28.24382       21.85484        0.417
       12.36574       29.04330       22.84958        0.417
        7.40927       22.24091       21.71607       -0.834
        7.41782       22.34245       22.66784        0.417
        8.12165       22.80141       21.40852        0.417
       20.67001       21.26239        6.85711       -0.834
       21.62022       21.18118        6.77507        0.417
       20.33053       20.97514        6.00948        0.417
       21.04117       16.70133        3.03369       -0.834
       20.54012       16.27236        3.72735        0.417
       20.97379       17.63543        3.23151        0.417
       21.14194        8.84331        4.00873       -0.834
       20.39847        8.81352        3.40657        0.417
       20.76554        9.13023        4.84074        0.417
       22.93721       20.01585        9.55281       -0.834
       22.67848       19.15515        9.22343        0.417
       22.58777       20.04696       10.44341        0.417
       16.50276       11.54946       28.38117       -0.834
       16.23513       12.44216       28.16275        0.417
       17.04150       11.64579       29.16648        0.417
       25.58774       24.82596       16.60949       -0.834
       24.68442       24.97232       16.89027        0.417
       25.61544       23.90165       16.36227        0.417
       14.37952       12.39284        3.37681       -0.834
       13.50377       12.51524        3.01033        0.417
       14.85395       11.90185        2.70594        0.417
        8.76287        7.60283       10.65091       -0.834
        9.26751        7.91558       11.40175        0.417
        7.86432        7.87672       10.83480        0.417
       25.43550       12.52425       21.99899       -0.834
       25.86981       11.67917       21.88298        0.417
       24.60326       12.43203       21.53519        0.417
       24.08525       26.82640       23.06754       -0.834
       24.12908       27.77513       22.94822        0.417
       23.26965       26.68230       23.54739        0.417
       10.25062        5.40179        9.90316       -0.834
        9.81888        6.11602       10.37195        0.417
        9.90371        5.45497        9.01263        0.417
       15.37082       28.98374       22.10121       -0.834
       14.63340       29.23507       22.65733        0.417
       15.84810       29.79996       21.95214        0.417
       24.36703       29.15251       13.60913       -0.834
       24.16179       28.21757       13.60833        0.417
       23.72074       29.53959       14.19964        0.417
       23.15717        8.10623       15.90581       -0.834
       22.64633        7.50634       15.36229        0.417
       22.57034        8.33613       16.62624        0.417
       11.45182        6.85190        6.61591       -0.834
       12.02296        6.64480        7.35560        0.417
       11.31956        7.79823        6.67244        0.417
       27.55938       20.31416       26.91606       -0.834
       28.18687       19.62005       27.11780        0.417
       27.67532       20.47788       25.98012        0.417
       21.74375        3.38555       14.71870       -0.834
       20.86842        3.54899       15.06986        0.417
       21.73451        2.46075       14.47193        0.417
       15.26720        9.94008        9.78620       -0.834
       14.39335        9.55370        9.72858        0.417
       15.54613       10.03953        8.87596        0.417
       18.24404       13.70690        8.59512       -0.834
       19.13723       13.70682        8.93927        0.417
       17.70813       13.38152        9.31842        0.417
       27.01564       23.67234       20.80715       -0.834
       27.51647       23.51062       21.60668        0.417
       26.92394       22.80961       20.40277        0.417
       19.32795       31.84796       20.48867       -0.834
       19.15726       30.91876       20.33476        0.417
       18.74763       32.30286       19.87831        0.417
       23.10639       10.39349        6.38783       -0.834
       23.30974        9.46489        6.27567        0.417
       22.15013       10.42855        6.41191        0.417
       24.31036       24.76550       12.77279       -0.834
       23.63827       25.12823       12.19576        0.417
       24.44667       25.44124       13.43690        0.417
        6.11972       16.35136       10.34507       -0.834
        6.45780       17.19924       10.63322        0.417
        5.22945       16.53693       10.04636        0.417
       21.73160        7.11245        9.12772       -0.834
       21.19191        7.87539        9.33482        0.417
       21.67726        6.56105        9.90826        0.417
       15.57601        6.61277       26.19022       -0.834
       16.28097        6.35261       26.78316        0.417
       15.44258        5.85044       25.62695        0.417
       19.97319       15.90813       30.99058       -0.834
       19.83409       15.67031       31.90728        0.417
       19.60471       16.78809       30.91237        0.417
       20.16258       11.84323       22.75688       -0.834
       20.30020       11.69548       23.69254        0.417
       20.77702       12.54165       22.53128        0.417
        9.00599        6.83820       22.58404       -0.834
        9.78312        7.36422       22.77275        0.417
        8.39970        7.04173       23.29625        0.417
       18.28805       25.16414        7.06898       -0.834
       18.71715       24.45273        7.54437        0.417
       18.47782       24.98598        6.14785        0.417
       13.91873       13.06526       26.62281       -0.834
       14.67750       13.59866       26.85942        0.417
       13.60428       12.71263       27.45528        0.417
       14.12480       10.89223       24.91227       -0.834
       13.54020       11.17103       24.20747        0.417
       13.98927       11.53774       25.60595        0.417
       18.14909        6.53712       15.86214       -0.834
       18.62648        6.72045       15.05299        0.417
       18.38483        5.63551       16.08085        0.417
       13.09668       26.01340       12.48859       -0.834
       12.81445       26.89616       12.72798        0.417
       13.02397       25.51003       13.29950        0.417
       26.81338       17.13589       11.40617       -0.834
       26.72479       17.58709       12.24569        0.417
       26.16650       16.43131       11.44295        0.417
       16.40005        4.57915       21.15776       -0.834
       15.92447        5.32861       20.79947        0.417
       17.13067        4.96667       21.63970        0.417
       10.01907       21.84703       23.45599       -0.834
       10.01133       21.85948       24.41308        0.417
        9.48523       22.59980       23.20187        0.417
        4.23854       23.31918       22.69064       -0.834
        5.17613       23.15754       22.79599        0.417
        3.92593       23.50433       23.57621        0.417
       12.46744       14.04376       11.51276       -0.834
       13.12849       14.63400       11.15101        0.417
       12.33799       13.38273       10.83268        0.417
       25.71764        6.93367       16.52260       -0.834
       25.01085        7.57298       16.61189        0.417
       26.48556        7.45577       16.29034        0.417
       12.16606       13.22773       22.81951       -0.834
       11.95285       12.49975       23.40330        0.417
       11.43545       13.26210       22.20205        0.417
       17.20715       25.12565       13.02624       -0.834
       16.78496       24.84487       13.83812        0.417
       16.86117       26.00384       12.86710        0.417
       26.41750        6.15283       14.08287       -0.834
       27.37057        6.10330       14.00913        0.417
       26.25874        6.36716       15.00216        0.417
       10.50387       25.86421       22.88312       -0.834
       10.91584       26.70885       23.06504        0.417
       10.84904       25.60811       22.02784        0.417
       10.67141       26.01695       15.93612       -0.834
       10.47099       25.92607       15.00455        0.417
       11.49976       26.49610       15.95775        0.417
       14.21332       11.54064       21.25750       -0.834
       13.83244       11.13740       20.47740        0.417
       13.51486       12.09409       21.60690        0.417
        6.65550        9.99470       10.14688       -0.834
        7.20550       10.62209        9.67771        0.417
        5.77300       10.36136       10.09225        0.417
       25.39016        5.99128       23.91640       -0.834
       25.13005        6.76321       23.41370        0.417
       24.68622        5.35982       23.76802        0.417
       10.17849       13.09470       21.04278       -0.834
        9.66636       13.52337       20.35707        0.417
        9.58928       13.06034       21.79636        0.417
       18.67174       24.61304        4.45789       -0.834
       17.75159       24.54208        4.20389        0.417
       19.07151       23.80339        4.14028        0.417
       22.23011       13.47959       22.64862       -0.834
       22.76955       13.91061       21.98571        0.417
       22.08058       14.15355       23.31168        0.417
       16.33917       12.37530        5.15540       -0.834
       15.67930       12.31525        4.46461        0.417
       15.83934       12.56808        5.94865        0.417
        4.75230       21.35629       12.63553       -0.834
        5.28513       20.62820       12.31575        0.417
        4.81830       21.30136       13.58887        0.417
       18.53928        7.72534       10.72838       -0.834
       17.59534        7.64346       10.86439        0.417
       18.92315        7.52253       11.58145        0.417
        3.58288       24.52955       17.96449       -0.834
        4.30737       23.90396       17.96408        0.417
        3.59381       24.90881       18.84328        0.417
       21.58322       16.02696       19.62941       -0.834
       22.18173       15.48508       20.14359        0.417
       21.87840       16.92418       19.78462        0.417
       26.09638       14.68051       17.80330       -0.834
       26.76144       14.60312       18.48735        0.417
       26.57775       14.55588       16.98538        0.417
       26.22157       19.92897       17.64292       -0.834
       26.09348       19.09304       17.19454        0.417
       26.10287       19.72444       18.57045        0.417
       10.53409       19.40546       19.88839       -0.834
       10.88005       18.62529       19.45494        0.417
       10.81448       19.31810       20.79942        0.417
       10.56981       21.96698        6.76688       -0.834
       11.27578       22.61329        6.75559        0.417
       10.84206       21.32565        7.42325        0.417
        5.90382       10.89120       24.46372       -0.834
        5.30820       11.63215       24.35205        0.417
        5.94022       10.48025       23.59999        0.417
        4.95338       18.18246       21.38628       -0.834
        5.23041       17.42681       20.86812        0.417
        5.66122       18.81815       21.28101        0.417
        5.39753       19.46141       16.61382       -0.834
        4.60894       19.77690       17.05528        0.417
        5.38838       18.51455       16.75380        0.417
       17.13588        6.61477        8.07187       -0.834
       17.31581        5.69539        8.26835        0.417
       17.68597        7.10317        8.68433        0.417
       16.54833       23.04061        4.18519       -0.834
       16.13005       22.24251        3.86221        0.417
       15.92661       23.39762        4.81941        0.417
       10.77818       30.05081       15.24281       -0.834
       10.84864       29.68539       14.36092        0.417
        9.97116       29.67499       15.59453        0.417
       14.45368        6.32864       20.00545       -0.834
       14.02675        5.66543       19.46314        0.417
       14.67813        7.03029       19.39426        0.417
       14.06394        2.55424       22.23414       -0.834
       14.81203        2.74115       21.66699        0.417
       13.37640        3.14517       21.92703        0.417
        4.11018       24.08077       13.17086       -0.834
        4.37635       23.61988       12.37526        0.417
        4.43763       23.53463       13.88552        0.417
       10.02116        9.39905        5.17591       -0.834
       10.94860        9.17752        5.25958        0.417
       10.01651       10.32526        4.93433        0.417
        8.70927        5.18172       18.05646       -0.834
        8.69523        4.46895       18.69521        0.417
        8.91961        5.96101       18.57101        0.417