%Nproc=32
%Mem=120Gb
%chk=temp.chk
#p cam-b3lyp/6-31+G(d,p) nosymm charge Freq 

Calculation for S0 with freq for abs spect

0  1
 C         15.67966       17.23405       15.57458
 C         17.46053       17.47997       17.21426
 C         17.49098       16.23531       17.62101
 C         16.62842       15.28592       16.97694
 N         15.76112       15.85166       16.01812
 H         18.16896       18.24781       17.64623
 H         18.26656       15.88672       18.29063
 O         16.64072       14.10790       17.19846
 O         14.83314       17.62258       14.80907
 N         16.69513       18.00316       16.19828
 H         16.71601       18.99180       15.84206
 H         14.94632       15.23088       15.72141
 O         17.09782       16.53222       11.20533
 H         16.99371       16.53327       12.15685
 H         17.88189       17.05859       11.04912
 O         16.08615       20.71033       15.54334
 H         15.17665       20.41672       15.59652
 H         16.23187       20.87248       14.61130
 O         13.64025       19.79678       15.70767
 H         13.79418       18.96666       15.25662
 H         13.45621       19.54731       16.61328
 O         16.75676       14.09382       12.67013
 H         17.30957       14.26699       11.90813
 H         17.36390       14.08529       13.41010
 O         12.65659       16.55815       18.17782
 H         11.92001       16.53347       18.78862
 H         12.29120       16.24966       17.34863
 O         18.89636       16.11832       13.93962
 H         18.96682       15.36373       14.52431
 H         19.34548       16.82457       14.40408
 O         11.70001       15.86832       15.31570
 H         12.13374       16.51721       14.76157
 H         11.64616       15.08400       14.76965
 O         16.78806       21.65897       18.16146
 H         16.73744       21.20179       17.32202
 H         15.92979       22.07052       18.26272
 O         15.36215       19.46852       20.75555
 H         15.26806       19.55934       19.80733
 H         14.78153       18.74323       20.98595
 O         14.36829       14.74403       13.64606
 H         14.93620       14.20083       13.09958
 H         14.80242       15.59679       13.66992
 O         13.44611       19.16131       18.46679
 H         12.60900       19.44768       18.83213
 H         13.36064       18.21130       18.38684
 O         20.33156       18.23450       15.12812
 H         20.60559       18.83677       15.81979
 H         20.94823       18.39326       14.41345
 O         20.29121       16.96838       19.34282
 H         20.68045       16.82219       18.48064
 H         20.86923       16.50481       19.94881
 O         15.97146       11.73650       18.22570
 H         16.23470       12.56040       17.81566
 H         15.21154       11.96656       18.76033
 O         18.51765       13.68374       14.87461
 H         19.18355       13.07307       14.55855
 H         18.44903       13.50016       15.81154
 O         14.01196       14.81777       19.69704
 H         13.69620       15.49835       19.10262
 H         14.93402       14.70594       19.46564
 O         19.14321       21.46650       14.39776
 H         19.01960       21.84665       13.52802
 H         18.52116       20.73982       14.43266
 O         19.68132       19.63372       19.78313
 H         19.52910       19.78596       20.71581
 H         19.79343       18.68594       19.70984
 O         17.78279       16.94105       21.05899
 H         17.45812       17.83900       20.99189
 H         18.53027       16.91087       20.46183
 O         20.72793       15.22235       16.39220
 H         20.98541       15.01091       17.28954
 H         20.97323       16.14104       16.28229
 
       21.09890       19.80484       17.27245       -0.834
       20.68820       20.04092       18.10421        0.417
       21.63284       20.56571       17.04395        0.417
       22.97571       13.95331        6.89215       -0.834
       23.08526       14.66296        7.52511        0.417
       22.06345       13.68125        6.99216        0.417
       15.85230       25.24594       18.93531       -0.834
       16.77863       25.08643       18.75438        0.417
       15.42715       24.40440       18.77015        0.417
       22.10313       13.77474       14.45047       -0.834
       21.53073       14.29482       15.01447        0.417
       22.97643       14.13988       14.59277        0.417
        5.07868       20.83341       12.09109       -0.834
        5.53590       20.00107       12.21105        0.417
        5.45255       21.41072       12.75680        0.417
       17.34162        3.64960       10.43102       -0.834
       18.16489        3.93228       10.82920        0.417
       16.86791        3.21641       11.14108        0.417
       23.57483        9.39149        8.64127       -0.834
       23.52489        9.54901        7.69844        0.417
       23.14528       10.15111        9.03458        0.417
       24.27236        4.36567       16.66616       -0.834
       24.02143        4.14514       15.76914        0.417
       23.45256        4.33427       17.15929        0.417
       24.42711       17.59568       19.46479       -0.834
       23.65362       17.03366       19.41937        0.417
       25.13589       17.05743       19.11243        0.417
        8.48071       16.80112       29.20048       -0.834
        9.41064       16.57718       29.16416        0.417
        8.27523       17.11637       28.32035        0.417
       14.55093       17.03645       21.50517       -0.834
       13.61983       17.15794       21.31938        0.417
       14.69795       16.09754       21.39083        0.417
       10.46370       27.52387       16.14917       -0.834
       11.18489       26.94274       15.90749        0.417
       10.36201       28.10610       15.39624        0.417
        3.02293       15.10582       13.37232       -0.834
        3.76724       15.60649       13.03830        0.417
        2.31353       15.74514       13.43754        0.417
       26.89688       10.74630       21.28659       -0.834
       26.16087       11.28393       21.57896        0.417
       26.49602        9.92495       21.00214        0.417
       16.71464       28.95700       10.23588       -0.834
       16.55584       28.48071        9.42093        0.417
       17.58117       28.66543       10.51933        0.417
       25.46302       20.41841        6.35256       -0.834
       25.39679       20.75886        5.46041        0.417
       25.39201       19.46905        6.25303        0.417
       10.36168        9.99910        7.27810       -0.834
       10.89409       10.34135        7.99618        0.417
       10.51716        9.05473        7.29302        0.417
       18.91971        6.94893       14.73840       -0.834
       19.62326        6.86726       14.09453        0.417
       19.16399        6.34398       15.43883        0.417
       10.40581       18.18516        5.21786       -0.834
       10.27126       18.66052        6.03771        0.417
       10.86418       18.80682        4.65246        0.417
       16.44291        6.07286        6.08522       -0.834
       16.75006        5.92361        6.97943        0.417
       16.43960        5.20363        5.68439        0.417
        6.91954       23.09236       20.23727       -0.834
        7.44927       23.83212       19.93998        0.417
        7.37085       22.32093       19.89455        0.417
       17.55831        3.81292       21.25928       -0.834
       17.30335        4.24897       22.07235        0.417
       16.72952        3.61267       20.82426        0.417
       25.06127       25.14098       13.87252       -0.834
       24.25547       25.39249       14.32381        0.417
       25.50039       25.97062       13.68519        0.417
        5.18819       11.88314       11.20030       -0.834
        5.49826       11.08190       10.77826        0.417
        5.93362       12.18484       11.71948        0.417
       17.16954       26.44285       21.76510       -0.834
       17.01995       25.49744       21.75804        0.417
       17.67142       26.61237       20.96785        0.417
       20.56777        6.86711       12.67278       -0.834
       21.39387        7.34168       12.76541        0.417
       20.28075        7.05705       11.77960        0.417
       15.01520       14.96529       29.31287       -0.834
       15.53672       14.46265       28.68708        0.417
       15.27018       14.62110       30.16888        0.417
       26.50852       22.48880       22.21488       -0.834
       26.15335       22.16646       23.04324        0.417
       26.16318       21.88713       21.55537        0.417
       21.53776        2.50351       12.96552       -0.834
       21.18416        2.30465       12.09854        0.417
       20.78936        2.83963       13.45862        0.417
        8.11016       14.53073       23.61776       -0.834
        8.61223       13.84164       23.18267        0.417
        7.36553       14.68810       23.03725        0.417
        9.71107        5.99741       23.97995       -0.834
        9.41780        5.59405       24.79698        0.417
        8.92619        6.41200       23.62175        0.417
       13.05208       12.23224       19.63692       -0.834
       13.20715       13.17673       19.62605        0.417
       13.15516       11.98267       20.55524        0.417
       15.90447       14.87982        9.40110       -0.834
       16.54710       14.18225        9.53015        0.417
       16.28696       15.64193        9.83598        0.417
       25.54084       19.27261       22.58329       -0.834
       25.32365       19.59798       23.45690        0.417
       25.40752       18.32641       22.63960        0.417
       18.44763        1.47833       17.06218       -0.834
       18.79621        0.99406       17.81064        0.417
       18.53587        2.39875       17.30970        0.417
       20.75838       24.47455       13.71464       -0.834
       21.15506       23.60796       13.62580        0.417
       19.91133       24.39689       13.27567        0.417
       25.49254       24.93281       19.67018       -0.834
       25.24898       24.01047       19.59146        0.417
       26.44013       24.92013       19.80493        0.417
       25.31734       16.40330       22.02041       -0.834
       25.08469       16.75800       21.16234        0.417
       25.26067       15.45405       21.91109        0.417
       14.79150       22.83498        6.53237       -0.834
       15.28552       23.44716        7.07772        0.417
       14.17645       22.41835        7.13599        0.417
        4.66620       12.40746        8.15376       -0.834
        5.57990       12.33656        8.43010        0.417
        4.18728       11.84386        8.76139        0.417
       13.52319       13.11109       25.21934       -0.834
       13.36114       13.30232       26.14314        0.417
       14.44653       13.32658       25.08804        0.417
       20.66631       22.63237        7.53580       -0.834
       20.51907       23.52859        7.23359        0.417
       20.80500       22.12843        6.73390        0.417
       19.35216        5.56666       19.55694       -0.834
       18.81738        5.31433       20.30964        0.417
       18.91608        6.34110       19.20153        0.417
        9.20008       27.28339       18.72113       -0.834
        9.74904       27.11775       17.95469        0.417
        9.66999       27.95776       19.21168        0.417
       12.23214       18.55980       24.54970       -0.834
       11.58763       18.82968       23.89548        0.417
       12.83381       19.30148       24.61405        0.417
       16.41812        6.82833       13.66276       -0.834
       15.68947        7.21275       14.15012        0.417
       17.20021        7.21929       14.05230        0.417
       20.05778        7.91401       26.99603       -0.834
       20.91459        7.74760       27.38899        0.417
       20.21863        8.60486       26.35331        0.417
       20.60155       13.61616       19.06758       -0.834
       19.97521       13.05617       18.60895        0.417
       20.13891       13.89733       19.85697        0.417
       24.16348       20.43940       14.18568       -0.834
       24.49507       20.35387       13.29183        0.417
       24.76931       21.04753       14.60922        0.417
        7.17375       18.54323        4.59025       -0.834
        8.12701       18.53080        4.50437        0.417
        6.99372       17.98587        5.34733        0.417
       11.34941       13.11491       11.55555       -0.834
       11.48200       13.41110       12.45606        0.417
       12.15951       13.35088       11.10357        0.417
       19.23273        9.49928       29.27198       -0.834
       19.59568        9.20564       28.43635        0.417
       18.60789        8.81627       29.51549        0.417
       25.31743       23.68820        6.77044       -0.834
       25.70742       23.54929        5.90739        0.417
       25.03390       22.81731        7.04865        0.417
       14.27107       12.00885       30.85288       -0.834
       14.68617       11.80456       30.01491        0.417
       13.61216       12.66957       30.63953        0.417
        6.00865       16.11573       25.90070       -0.834
        5.70652       15.20823       25.86350        0.417
        6.94685       16.04923       26.07846        0.417
       12.12308       13.02548       14.16498       -0.834
       11.97031       12.55420       14.98400        0.417
       13.05943       13.22397       14.17338        0.417
        5.75471       17.33290       23.51730       -0.834
        6.05118       17.00945       24.36802        0.417
        6.44603       17.93119       23.23384        0.417
       29.44962       15.60212       24.33632       -0.834
       28.69912       15.10957       24.00409        0.417
       29.85018       15.98472       23.55568        0.417
       10.46592       11.78682       18.80375       -0.834
       11.03113       11.61656       19.55726        0.417
        9.93810       10.99319       18.71548        0.417
       22.37706       11.44508       15.96685       -0.834
       23.21162       11.04484       16.21090        0.417
       22.61830       12.17176       15.39241        0.417
       10.34915       25.61142        5.68245       -0.834
       10.13566       26.53601        5.55680        0.417
       10.01707       25.40502        6.55615        0.417
        7.15128       12.02033        8.96583       -0.834
        7.77936       12.58240        9.41951        0.417
        7.58906       11.17126        8.90535        0.417
       13.84982       19.24341       12.09368       -0.834
       14.48966       19.51829       12.75040        0.417
       14.37792       18.89772       11.37407        0.417
       30.81754       17.67475       22.84557       -0.834
       31.15862       17.96695       23.69086        0.417
       29.98094       18.13070       22.75377        0.417
        9.44608       24.97638        8.27356       -0.834
       10.16745       24.66310        8.81920        0.417
        8.68033       24.49681        8.58959        0.417
       24.21233        9.14979       11.56031       -0.834
       24.42807        8.89113       10.66433        0.417
       24.11117        8.32256       12.03115        0.417
        9.53496       11.25256       15.76759       -0.834
        9.63918       10.30223       15.72031        0.417
        9.63625       11.55037       14.86355        0.417
       22.67622       22.81073       16.92806       -0.834
       23.15968       23.09318       17.70441        0.417
       23.33118       22.79450       16.23021        0.417
       17.38465       10.94915       24.20671       -0.834
       17.18568       11.63672       23.57119        0.417
       16.52854       10.65434       24.51725        0.417
       22.33386       18.31291       13.11095       -0.834
       22.88647       17.54677       12.95643        0.417
       22.94953       19.01317       13.32737        0.417
       25.26303       17.69347       29.62520       -0.834
       25.03479       17.44344       30.52053        0.417
       24.44510       18.02181       29.25181        0.417
       16.33763       20.69442       12.89576       -0.834
       16.73701       20.45371       12.05981        0.417
       15.69832       21.37028       12.67052        0.417
       23.23804       13.87829       25.81674       -0.834
       22.62164       14.53575       26.13929        0.417
       22.73108       13.36035       25.19147        0.417
        6.24677       12.20303       26.99199       -0.834
        6.88235       11.67530       26.50848        0.417
        5.78249       12.69778       26.31678        0.417
        8.16615       18.52199       14.41254       -0.834
        7.40192       18.93708       14.81239        0.417
        8.49008       17.91976       15.08233        0.417
       16.68806       24.44968        7.37451       -0.834
       17.45868       23.88208        7.36006        0.417
       16.95500       25.20343        7.90064        0.417
       18.87523        8.77915       22.30249       -0.834
       19.13181        9.50694       21.73618        0.417
       17.99140        8.55094       22.01442        0.417
        3.28919       10.72650       14.99345       -0.834
        3.18526       10.76787       15.94409        0.417
        2.40514       10.56885       14.66201        0.417
       23.73815       10.07051       23.14744       -0.834
       24.30130        9.68534       23.81881        0.417
       23.07608        9.40072       22.97636        0.417
       17.71477       19.79717       21.88723       -0.834
       17.42206       19.43027       22.72146        0.417
       16.90943       19.92717       21.38647        0.417
        9.53970       11.05209       27.92778       -0.834
        9.44121       10.19457       28.34153        0.417
        9.88962       10.86002       27.05778        0.417
       30.81454       15.00534       17.48801       -0.834
       30.99176       14.60886       18.34102        0.417
       30.97161       15.94021       17.62061        0.417
       11.57840       25.63871       14.38427       -0.834
       12.51697       25.70079       14.20693        0.417
       11.46665       24.77739       14.78662        0.417
       19.90714       25.81820       24.53090       -0.834
       19.30433       25.07471       24.52200        0.417
       20.76848       25.42706       24.67696        0.417
        6.28623       18.29854       11.57629       -0.834
        7.16610       17.94126       11.69633        0.417
        6.07760       18.11962       10.65940        0.417
       12.00802       25.37006       27.35480       -0.834
       11.54906       24.84409       28.00973        0.417
       11.81890       26.27603       27.59909        0.417
       14.58242       10.09368        3.17388       -0.834
       15.04503        9.25949        3.09420        0.417
       14.17964       10.06280        4.04166        0.417
       15.01737       27.74821       19.14227       -0.834
       15.35483       28.14729       18.34033        0.417
       15.55619       26.96691       19.26664        0.417
       16.58098        7.81580       10.98428       -0.834
       17.52119        7.81458       10.80465        0.417
       16.51255        7.56917       11.90663        0.417
       20.48829       14.46744       29.35889       -0.834
       21.19124       14.50896       30.00724        0.417
       19.68686       14.39956       29.87785        0.417
       16.17398        8.46270        7.35075       -0.834
       16.17084        7.71264        6.75608        0.417
       15.56660        8.21798        8.04891        0.417
       26.15435       12.47128       10.15404       -0.834
       26.22355       13.42580       10.13560        0.417
       25.32105       12.29950       10.59259        0.417
        2.41373       15.81317       10.21587       -0.834
        3.26382       15.82684       10.65563        0.417
        2.62534       15.71541        9.28749        0.417
       18.87762       11.64073       17.93877       -0.834
       17.97081       11.91796       17.80809        0.417
       19.10499       11.17618       17.13333        0.417
       17.48595       11.94630       29.75287       -0.834
       18.12809       11.28944       29.48374        0.417
       16.73557       11.79826       29.17732        0.417
       15.01926       31.49863       18.89988       -0.834
       15.49653       31.48397       18.07028        0.417
       15.69855       31.60596       19.56568        0.417
       17.23378       15.34471        1.43349       -0.834
       18.13201       15.10569        1.66214        0.417
       16.97743       15.98102        2.10105        0.417
       11.46817       23.93173       18.66373       -0.834
       11.36240       23.26380       19.34116        0.417
       12.12955       24.52764       19.01544        0.417
       12.60650       11.94912       28.13271       -0.834
       11.91642       12.39560       28.62331        0.417
       12.18514       11.68042       27.31632        0.417
       22.04337       22.09773       10.21402       -0.834
       22.02159       22.34410        9.28933        0.417
       22.56497       22.78252       10.63262        0.417
       25.39537        8.46294       20.08624       -0.834
       25.73245        7.73102       19.56962        0.417
       25.28924        8.10562       20.96788        0.417
       25.98890       16.43633       11.22274       -0.834
       25.92695       16.78453       12.11221        0.417
       25.36332       16.95567       10.71760        0.417
        8.79011       14.37717        5.95152       -0.834
        9.39636       14.24249        6.67991        0.417
        8.19711       13.62682        5.99096        0.417
        9.47264       28.47359       13.12572       -0.834
        9.40034       27.52080       13.06918        0.417
       10.17122       28.69815       12.51108        0.417
       28.38208       24.69697       18.98344       -0.834
       28.57288       24.92931       18.07468        0.417
       28.54540       23.75494       19.02966        0.417
        9.52799       26.09801       25.44476       -0.834
        9.58156       25.14495       25.37386        0.417
       10.37128       26.41081       25.11725        0.417
       11.81285       17.86285       21.29566       -0.834
       11.50759       16.96254       21.18388        0.417
       11.20044       18.24781       21.92256        0.417
       13.45604       22.03982       14.24082       -0.834
       12.58754       22.35608       14.48964        0.417
       13.51322       21.16614       14.62767        0.417
       18.64408       23.45459       24.40330       -0.834
       18.88510       23.04933       23.57029        0.417
       17.69307       23.55255       24.35624        0.417
       26.19672       16.00113       18.57223       -0.834
       27.01311       15.98500       18.07274        0.417
       25.75210       15.18831       18.33166        0.417
       10.17715        7.00287       13.79996       -0.834
       10.82831        7.23322       14.46266        0.417
        9.99957        7.82455       13.34220        0.417
       22.27948       17.41440       17.56858       -0.834
       21.92940       18.30443       17.52965        0.417
       23.08311       17.44970       17.04977        0.417
       17.61985       23.17016       21.35717       -0.834
       17.04876       22.40204       21.36622        0.417
       18.17601       23.04666       20.58797        0.417
        6.02412       16.78257       16.95975       -0.834
        5.07125       16.69391       16.98041        0.417
        6.32810       16.28311       17.71763        0.417
       24.99648       13.69983       17.49461       -0.834
       24.21266       13.31237       17.88415        0.417
       25.69027       13.06360       17.66810        0.417
       21.33318       19.41774       10.54441       -0.834
       21.89324       20.18953       10.46134        0.417
       21.58149       19.03026       11.38372        0.417
       30.28563       16.00710       10.98483       -0.834
       29.61221       15.36844       11.21903        0.417
       29.79615       16.78718       10.72381        0.417
       13.67087        4.42913        8.85593       -0.834
       14.52346        4.84632        8.97952        0.417
       13.69874        3.65498        9.41820        0.417
       21.53207       11.37829        8.93200       -0.834
       21.30079       11.41129        8.00374        0.417
       20.87353       10.80422        9.32314        0.417
        2.72379       19.28665       10.39020       -0.834
        2.83726       18.94949       11.27884        0.417
        3.50425       19.81830       10.23376        0.417
        8.18423       10.62738       24.81844       -0.834
        8.26210        9.73696       25.16096        0.417
        7.44243       10.58827       24.21475        0.417
        8.43379       13.59746       16.57281       -0.834
        9.14147       12.98589       16.36933        0.417
        7.75841       13.05573       16.98102        0.417
       20.40908       27.09575       14.58906       -0.834
       20.57596       27.49981       13.73752        0.417
       20.40143       26.15527       14.41105        0.417
       19.40575        8.02707       10.45611       -0.834
       19.34753        8.24038        9.52479        0.417
       19.92230        8.73907       10.83355        0.417
        6.16882       19.21829       15.81373       -0.834
        5.30249       19.62517       15.80110        0.417
        6.10042       18.52858       16.47392        0.417
       11.50591       21.97760       23.17796       -0.834
       11.56082       22.01354       24.13291        0.417
       11.67003       22.87690       22.89414        0.417
       26.93445       22.60951       13.34279       -0.834
       26.51515       23.29357       12.82080        0.417
       27.85464       22.86977       13.38476        0.417
       19.06658       23.87338       27.22815       -0.834
       19.56456       24.69084       27.22726        0.417
       19.17522       23.52523       26.34316        0.417
        7.63417        6.34487       14.31044       -0.834
        8.58648        6.43649       14.34116        0.417
        7.34512        7.04019       13.71949        0.417
       27.83003       18.96987        7.55141       -0.834
       28.15521       18.12729        7.23434        0.417
       27.05339       19.14300        7.01935        0.417
       13.08562       25.69020       19.96950       -0.834
       13.21518       26.43176       19.37827        0.417
       13.70349       25.84255       20.68452        0.417
        8.78372       13.34003       29.11324       -0.834
        8.11329       13.70793       28.53757        0.417
        9.00003       12.49455       28.72004        0.417
       12.18942       25.41273        8.73646       -0.834
       12.68451       26.20241        8.95447        0.417
       12.08035       25.45252        7.78633        0.417
       16.90407        1.81373       14.89885       -0.834
       17.31097        1.89385       15.76154        0.417
       16.81130        2.71584       14.59254        0.417
       22.82253       17.09910       28.13768       -0.834
       22.87217       16.72324       27.25876        0.417
       21.88733       17.11025       28.34145        0.417
       16.44803       14.62035        4.21697       -0.834
       16.56429       13.82898        3.69119        0.417
       15.73550       15.09232        3.78594        0.417
        8.25153       12.60957       19.94103       -0.834
        8.83786       12.51383       20.69155        0.417
        8.75828       12.28321       19.19744        0.417
       18.78351       16.90439       23.72842       -0.834
       17.85461       16.81995       23.94348        0.417
       18.84562       16.61953       22.81670        0.417
        9.58955       22.86442       10.54425       -0.834
        8.85244       22.31117       10.80273        0.417
       10.36011       22.41539       10.89187        0.417
       20.71791       12.29263       12.47961       -0.834
       20.46119       13.11215       12.05686        0.417
       20.97738       12.54998       13.36430        0.417
       23.56776       23.56455       11.93379       -0.834
       24.27403       23.84538       12.51564        0.417
       23.03013       22.98359       12.47199        0.417
       15.89961       20.56341        3.28613       -0.834
       15.84903       21.49947        3.09258        0.417
       15.52425       20.47894        4.16260        0.417
       19.13414        4.38325       12.61176       -0.834
       19.32779        5.31274       12.73328        0.417
       19.24650        3.99902       13.48123        0.417
       29.03389       13.66011       21.67798       -0.834
       28.44453       13.80015       22.41911        0.417
       28.94802       12.72846       21.47578        0.417
       16.70872        9.46675       20.13799       -0.834
       16.40675       10.01557       19.41421        0.417
       16.81890        8.59829       19.75087        0.417
        4.66405       13.75749       15.64293       -0.834
        4.33498       14.62045       15.89440        0.417
        4.18230       13.54016       14.84485        0.417
       18.85882       20.28271        8.57259       -0.834
       19.38817       21.05981        8.39334        0.417
       19.22294       19.60711        8.00056        0.417
       15.91234        5.94802       23.49463       -0.834
       15.83284        4.99647       23.56145        0.417
       15.78965        6.26258       24.39030        0.417
       14.28071       22.29967       26.90417       -0.834