%Nproc=32
%Mem=120Gb
%chk=temp.chk
#p cam-b3lyp/6-31+G(d,p) nosymm charge Freq 

Calculation for S0 with freq for abs spect

0  1
 C         15.79185       17.66672       15.87995
 C         15.94906       16.01714       17.62791
 C         17.18967       15.52426       17.24173
 C         17.80493       16.17456       16.11552
 N         17.03844       17.25074       15.59656
 H         15.40465       15.44063       18.41613
 H         17.56803       14.61602       17.68776
 O         18.85115       15.85790       15.61036
 O         15.17518       18.50919       15.33918
 N         15.25958       16.95781       16.94696
 H         14.27406       16.99219       17.02830
 H         17.40232       17.60179       14.70909
 O         15.93985       16.03453       11.91010
 H         16.19064       16.86872       11.51328
 H         15.06386       16.19041       12.26304
 O         13.26069       20.62047       14.73693
 H         13.84138       19.87065       14.60733
 H         12.39703       20.30371       14.47235
 O         20.12160       16.86528       20.82369
 H         19.92991       16.24712       20.11845
 H         19.66913       16.50635       21.58701
 O         19.87505       15.32811       18.45408
 H         19.73673       15.75830       17.61026
 H         20.69445       14.84530       18.34584
 O         16.73736       20.95618       19.27563
 H         17.06933       20.30550       19.89422
 H         16.03485       20.50539       18.80712
 O         17.85706       18.38249       20.25692
 H         18.68661       17.93707       20.42918
 H         17.20373       17.68293       20.26076
 O         18.52474       12.08453       16.06255
 H         18.32789       11.85242       16.97007
 H         19.41788       12.42764       16.09091
 O         16.33727       15.85144       20.84317
 H         16.88319       15.07325       20.95551
 H         16.20130       16.17956       21.73204
 O         14.20648       12.05837       17.00511
 H         14.82732       12.60126       16.51925
 H         13.86259       11.44626       16.35450
 O         18.27065       13.82222       20.24498
 H         18.77919       14.11229       19.48769
 H         18.72098       14.20566       20.99758
 O         21.03683       17.30198       14.98139
 H         20.64519       18.15452       15.17118
 H         20.32420       16.67626       15.11126
 O         15.58255       13.39820       14.74432
 H         16.34155       13.71726       15.23253
 H         15.86322       13.41072       13.82928
 O         20.66563       13.42191       14.41058
 H         20.28947       12.91681       13.68974
 H         19.97751       14.04094       14.65458
 O         12.58563       17.35409       16.34736
 H         12.08741       16.53742       16.31480
 H         12.84403       17.51393       15.43966
 O         14.25210       18.35820       20.44132
 H         13.46125       17.82322       20.37369
 H         14.77927       17.92354       21.11170
 O         20.09116       19.68446       15.69035
 H         20.17434       20.18042       16.50481
 H         20.44944       20.26453       15.01850
 
       14.96565       24.00354       18.73590       -0.834
       15.06159       24.79865       18.21166        0.417
       14.70010       23.33225       18.10734        0.417
       22.38229       28.37782       20.81819       -0.834
       23.32409       28.46916       20.96274        0.417
       21.98064       28.85131       21.54669        0.417
       15.71148       21.49920       11.03899       -0.834
       16.54091       21.76097       10.63928        0.417
       15.78677       21.77705       11.95188        0.417
       15.58219        7.67901        7.64737       -0.834
       15.18277        7.60958        6.78026        0.417
       14.88672        7.42293        8.25315        0.417
       22.58216       19.14673       11.27258       -0.834
       21.62791       19.10444       11.21058        0.417
       22.88555       18.33811       10.85989        0.417
        5.37925       26.71194       18.59798       -0.834
        6.05557       26.11831       18.27178        0.417
        5.61346       26.86251       19.51379        0.417
       13.86329        6.61026       11.58239       -0.834
       13.17201        7.14604       11.97136        0.417
       13.60693        5.70895       11.77770        0.417
        6.09560       13.25623       27.16024       -0.834
        6.29180       12.34268       27.36799        0.417
        6.17003       13.30696       26.20729        0.417
       26.95411        6.56492       17.04263       -0.834
       26.86237        6.66667       17.98998        0.417
       27.48756        7.31203       16.77156        0.417
       19.39399        8.03531       16.09445       -0.834
       20.29374        8.16892       15.79639        0.417
       19.33672        7.09635       16.27134        0.417
       14.80219       20.98640       21.96755       -0.834
       15.17391       20.62317       22.77137        0.417
       14.65614       20.22549       21.40548        0.417
       13.63616       12.66800       22.06774       -0.834
       13.90310       12.21315       21.26894        0.417
       13.63868       11.98925       22.74266        0.417
       17.83333       11.56425       18.54354       -0.834
       17.97722       10.85920       19.17474        0.417
       17.55662       12.31013       19.07583        0.417
       10.57561       12.21273       26.63969       -0.834
       10.82712       11.29063       26.69151        0.417
        9.92470       12.32326       27.33275        0.417
       16.86818       23.90922       15.52212       -0.834
       17.56522       23.63362       14.92679        0.417
       17.32735       24.31161       16.25932        0.417
       10.28339       19.49981       29.78898       -0.834
        9.72498       19.96285       30.41347        0.417
       10.53619       20.16791       29.15180        0.417
        7.14994        8.77470       21.21814       -0.834
        6.23551        8.49201       21.20631        0.417
        7.62542        8.03355       21.59342        0.417
       26.52335       12.31097       25.26126       -0.834
       25.71320       12.80907       25.15274        0.417
       26.38432       11.79695       26.05667        0.417
       20.11276       16.68134        9.20545       -0.834
       20.32473       15.96598        9.80508        0.417
       20.68781       16.54213        8.45300        0.417
        9.77849       29.46361       16.24347       -0.834
       10.04125       28.57227       16.47304        0.417
       10.60164       29.94836       16.18280        0.417
        8.98200       18.07191       15.22409       -0.834
        8.11947       17.92884       15.61372        0.417
        9.44429       18.61924       15.85887        0.417
       23.65509       22.67845       28.72616       -0.834
       23.87988       22.83625       27.80921        0.417
       23.91591       23.48060       29.17866        0.417
        3.23253       18.36627       11.43033       -0.834
        3.87272       17.68327       11.23057        0.417
        3.68181       18.94300       12.04820        0.417
       17.38654       12.79658        9.19194       -0.834
       16.60548       13.30671        8.97760        0.417
       17.61519       13.06967       10.08041        0.417
        9.87030       25.58510        9.24092       -0.834
       10.46686       25.44315        9.97590        0.417
        9.04254       25.83875        9.64923        0.417
       27.74108       16.59059       20.45847       -0.834
       28.36685       17.31468       20.47668        0.417
       27.08103       16.82738       21.11000        0.417
        8.98528       26.56518       24.51721       -0.834
        8.97539       25.81273       25.10877        0.417
        8.22963       27.08925       24.78287        0.417
       13.04999       14.77215        6.17382       -0.834
       13.68875       15.29930        6.65376        0.417
       13.52618       14.45982        5.40446        0.417
       27.48039        8.93504       15.07164       -0.834
       28.40022        9.04043       14.82867        0.417
       27.00040        9.05587       14.25235        0.417
        8.06008        9.37288        8.82422       -0.834
        7.85239       10.14996        9.34312        0.417
        7.64819        9.53403        7.97533        0.417
        9.17638       23.87577       25.92856       -0.834
        9.42377       22.97255       25.73050        0.417
        9.82061       24.16483       26.57481        0.417
       15.79339       12.71561       31.27017       -0.834
       15.22008       12.65987       32.03465        0.417
       15.47610       12.03051       30.68178        0.417
        9.17341       12.99015       19.17269       -0.834
        9.70209       13.51826       19.77088        0.417
        8.92913       12.21939       19.68503        0.417
        6.56200       14.33633        7.22035       -0.834
        5.75854       13.87113        7.45331        0.417
        6.34150       15.26216        7.32261        0.417
        3.25382       14.18674       13.06099       -0.834
        2.50950       14.78761       13.02688        0.417
        3.03256       13.49496       12.43752        0.417
       23.42908       14.87533       26.78138       -0.834
       23.41045       14.83192       25.82535        0.417
       22.92883       15.66277       26.99566        0.417
       28.13169       14.17662       21.64143       -0.834
       27.83514       14.88748       21.07313        0.417
       28.62814       13.59793       21.06273        0.417
       17.24883       30.87572       17.63223       -0.834
       17.45436       31.45630       16.89948        0.417
       18.03748       30.88542       18.17461        0.417
       29.91105       17.14535       18.51600       -0.834
       30.16354       17.52420       19.35800        0.417
       29.50480       17.86921       18.03931        0.417
        6.62030       10.80822       15.69988       -0.834
        6.88612       10.31445       16.47562        0.417
        6.87505       10.25293       14.96301        0.417
       17.47335       13.61734        3.67245       -0.834
       17.64576       13.28088        4.55182        0.417
       17.46761       12.83945        3.11471        0.417
       20.04276       19.24017       10.12764       -0.834
       20.11177       19.74920        9.31995        0.417
       20.02915       18.32848        9.83631        0.417
        5.39098        6.97629       14.21222       -0.834
        5.24546        7.30488       15.09940        0.417
        5.47595        7.76422       13.67540        0.417
       19.69424       27.01768       19.98601       -0.834
       19.54468       27.83759       20.45676        0.417
       20.56333       26.73349       20.26912        0.417
        9.16168       15.90670       22.70628       -0.834
        8.64082       15.82917       21.90695        0.417
        9.85809       15.25822       22.60277        0.417
       17.18524        7.41963       27.69781       -0.834
       17.37453        6.79447       28.39751        0.417
       17.68212        8.20270       27.93475        0.417
       13.28723       20.36242       18.84839       -0.834
       13.80795       19.91028       19.51221        0.417
       12.45028       19.89796       18.84252        0.417
       22.29888       16.90169       28.24015       -0.834
       21.97756       17.33386       27.44881        0.417
       21.73123       17.22726       28.93873        0.417
       26.28179       21.80047       13.01597       -0.834
       26.00532       20.96814       13.39942        0.417
       26.38870       21.61147       12.08373        0.417
       18.78758       25.24561       26.67269       -0.834
       18.30358       25.14590       25.85291        0.417
       19.60615       24.77123       26.52732        0.417
       22.14428        7.05109        8.62863       -0.834
       21.42745        7.25382        9.22970        0.417
       21.76953        6.42268        8.01147        0.417
       17.32595       14.62145       28.14249       -0.834
       16.53929       14.11677       28.34913        0.417
       18.04291       14.11581       28.52529        0.417
       10.61355       14.77320       25.19717       -0.834
       10.75172       13.91037       25.58789        0.417
        9.66232       14.87800       25.17704        0.417
        5.03638        7.82656       16.58704       -0.834
        5.24764        8.51917       17.21304        0.417
        4.29242        7.36843       16.97802        0.417
       16.12565        7.59812       25.24989       -0.834
       15.85508        6.69736       25.07196        0.417
       16.41276        7.58654       26.16294        0.417
       12.46979       20.11822       10.78475       -0.834
       12.88135       20.09305        9.92092        0.417
       12.29592       21.04648       10.94078        0.417
        3.76649       25.28311       14.74934       -0.834
        3.49751       25.18171       15.66236        0.417
        4.72285       25.30624       14.78206        0.417
       18.38771       16.04756        3.75139       -0.834
       17.94465       15.22130        3.94436        0.417
       18.86091       15.88143        2.93609        0.417
       13.28090        7.88655        9.05838       -0.834
       13.59471        7.46152        9.85657        0.417
       12.39725        7.54037        8.93365        0.417
       11.91311       19.88922       21.60407       -0.834
       11.86549       19.06144       21.12580        0.417
       12.67877       20.33326       21.23960        0.417
        8.36292       17.25153        3.22328       -0.834
        8.71886       16.47606        2.78948        0.417
        8.77977       17.25708        4.08493        0.417
       24.13409       11.96381       17.64280       -0.834
       24.47210       12.24578       18.49278        0.417
       24.91465       11.73643       17.13757        0.417
        7.87453       26.70456       10.64462       -0.834
        7.79665       26.35940       11.53402        0.417
        8.11871       27.62237       10.76391        0.417
       15.45331       21.70586        4.56346       -0.834
       15.89731       20.87725        4.74374        0.417
       14.56172       21.45319        4.32375        0.417
       23.27536       22.87589       12.31819       -0.834
       23.76982       23.10046       11.52996        0.417
       22.36660       23.08038       12.09781        0.417
       16.90739        6.48898       11.21045       -0.834
       16.01591        6.41263       11.55055        0.417
       16.91456        7.32317       10.74107        0.417
        3.53427        9.93976       17.57884       -0.834
        2.86624       10.62342       17.62964        0.417
        3.54944        9.68716       16.65570        0.417
        4.77833       19.71370       16.74977       -0.834
        5.17170       20.58599       16.77434        0.417
        4.27870       19.69866       15.93346        0.417
       19.67961       12.66696       28.75471       -0.834
       19.32517       11.79286       28.91767        0.417
       20.57879       12.51129       28.46578        0.417
       12.36883       21.13372        5.72702       -0.834
       12.69168       21.66667        6.45363        0.417
       12.76802       20.27453        5.86371        0.417
       16.90878       24.00085       28.33753       -0.834
       17.68381       24.48462       28.05200        0.417
       17.25822       23.24041       28.80214        0.417
        5.11448       15.45023       16.18155       -0.834
        4.23629       15.79384       16.01735        0.417
        4.96631       14.58109       16.55421        0.417
       11.57599        9.70407       18.34993       -0.834
       11.41292        9.00417       17.71765        0.417
       11.15863       10.47561       17.96681        0.417
       15.59315       28.14326       24.53871       -0.834
       15.18081       28.95450       24.24190        0.417
       15.91771       27.73197       23.73763        0.417
        7.65538       23.87793       23.43706       -0.834
        7.93094       24.02178       24.34238        0.417
        7.59058       22.92652       23.35423        0.417
       17.37410       23.00261       23.73220       -0.834
       17.49334       22.18029       24.20738        0.417
       17.21333       22.73566       22.82714        0.417
       28.30535       24.17449       11.33331       -0.834
       28.62335       23.30332       11.57028        0.417
       28.02991       24.56344       12.16342        0.417
        7.33964       12.39804       24.41165       -0.834
        8.00911       11.97900       23.87085        0.417
        6.62835       12.59603       23.80248        0.417
       19.65302        7.52175       10.27538       -0.834
       19.06670        7.14331        9.62021        0.417
       19.07806        8.03182       10.84590        0.417
       26.69548       15.73826       25.20026       -0.834
       27.38163       15.07671       25.11204        0.417
       25.94423       15.36814       24.73672        0.417
        8.73928        6.02493       15.66178       -0.834
        7.85331        5.67835       15.76749        0.417
        9.30447        5.36588       16.06483        0.417
       14.43972       11.99820        7.36769       -0.834
       14.69784       12.90347        7.54117        0.417
       14.21382       11.64403        8.22778        0.417
       30.13340       17.41895       10.26765       -0.834
       29.91511       16.61219        9.80106        0.417
       29.36492       17.59828       10.80942        0.417
       25.28459       19.76686       14.52019       -0.834
       24.64184       19.08649       14.31967        0.417
       26.07386       19.28565       14.76862        0.417
       16.75203       18.85036       11.25689       -0.834
       16.27514       19.66462       11.09633        0.417
       17.64867       19.12984       11.44174        0.417
       13.80219        7.39871       21.62813       -0.834
       14.18970        6.64407       22.07151        0.417
       14.21344        7.40647       20.76381        0.417
       10.98440        7.37144       17.07484       -0.834
       10.62368        6.51665       17.31029        0.417
       10.39857        7.69947       16.39260        0.417
        9.22184       20.61134       12.53210       -0.834
        9.83276       21.26245       12.18705        0.417
        9.70924       20.16981       13.22761        0.417
       17.42271       10.88619       24.42098       -0.834
       16.76624       11.22081       25.03198        0.417
       16.94058       10.27918       23.85944        0.417
       19.26071        6.64223       25.06837       -0.834
       19.37381        6.57030       26.01614        0.417
       18.58821        7.31426       24.95724        0.417
       21.07207       29.26635       22.97509       -0.834
       20.24956       29.40624       23.44428        0.417
       21.74354       29.28517       23.65699        0.417
       21.99506        7.34464       21.39427       -0.834
       21.33702        7.25004       20.70559        0.417
       22.32914        6.45803       21.53039        0.417
        7.57987       11.15750       10.90019       -0.834
        7.90909       11.85232       11.47035        0.417
        6.78180       11.52036       10.51593        0.417
       16.07131       19.08628        8.47620       -0.834
       16.51988       19.07566        9.32172        0.417
       16.42412       18.32972        8.00784        0.417
       19.03601       20.15936       12.33050       -0.834
       19.69152       20.50270       12.93768        0.417
       19.54691       19.75845       11.62731        0.417
       20.14900       21.29583       27.06456       -0.834
       19.44749       21.37604       27.71084        0.417
       20.81104       20.75477       27.49489        0.417
       17.80916       27.73714        8.74785       -0.834
       18.31571       28.45913        9.11981        0.417
       17.99981       26.99180        9.31737        0.417
       29.02952       21.56182       23.93443       -0.834
       29.72332       20.90616       24.00514        0.417
       28.46661       21.24054       23.23005        0.417
        6.94479       24.38330       20.62396       -0.834
        7.38185       24.22801       21.46127        0.417
        6.21394       24.96297       20.83862        0.417
       22.01536        8.57822       26.58425       -0.834
       22.66511        8.65840       25.88595        0.417
       21.17555        8.72322       26.14843        0.417
       28.60104       21.36218       11.27659       -0.834
       28.61008       20.84408       10.47178        0.417
       28.66230       20.71509       11.97927        0.417
       20.51551       17.53515       30.11635       -0.834
       19.78266       17.07226       30.52243        0.417
       20.32993       18.46129       30.27144        0.417
       15.41916        8.69544       13.57860       -0.834
       16.23027        8.89533       14.04590        0.417
       15.70605        8.40970       12.71127        0.417
       21.86762       13.52152       17.69158       -0.834
       22.78202       13.80399       17.70923        0.417
       21.78058       13.04153       16.86802        0.417
       21.25214       23.87951       24.04755       -0.834
       21.34662       23.78642       24.99552        0.417
       21.46970       24.79526       23.87348        0.417
       10.34808        4.87541       18.03125       -0.834
       11.23026        4.51235       17.95264        0.417
        9.87041        4.23367       18.55683        0.417
        8.37967       19.00999       25.99749       -0.834
        9.27162       19.31602       26.16185        0.417
        7.85352       19.80905       25.96744        0.417
        9.95125       24.00808       19.78165       -0.834
       10.22621       23.86652       20.68752        0.417
       10.76450       23.98378       19.27742        0.417
       14.98887       19.60786       24.53509       -0.834
       14.61997       20.38216       24.96005        0.417
       15.64127       19.28178       25.15499        0.417
       22.74279       15.08598       11.40303       -0.834
       23.01099       15.11466       12.32144        0.417
       22.26496       14.26092       11.31821        0.417
       21.94871        9.53536        7.07553       -0.834
       20.99597        9.44316        7.07340        0.417
       22.25173        8.88108        7.70508        0.417
       21.46036       22.44177       15.98149       -0.834
       21.41284       22.33048       16.93101        0.417
       22.22254       23.00418       15.84362        0.417
       17.13531        9.93992        8.32645       -0.834
       16.42138        9.39205        8.00032        0.417
       16.99542       10.78992        7.90912        0.417
       22.21792       10.48147       16.44851       -0.834
       21.76299       10.07038       17.18355        0.417
       22.99475       10.88075       16.84011        0.417
        9.48054       13.64086       28.86439       -0.834
       10.31615       14.10153       28.78841        0.417
        8.84139       14.23724       28.47446        0.417
       22.54671       26.57892       10.35554       -0.834
       22.82573       27.41285        9.97747        0.417
       22.13546       26.81768       11.18627        0.417
       26.38912       12.67663        7.16007       -0.834
       27.34494       12.63750        7.12684        0.417
       26.17267       12.48512        8.07259        0.417
       11.75656        4.30657       15.00807       -0.834
       12.47776        4.91913       14.86357        0.417
       12.00604        3.82371       15.79601        0.417
       27.26257        9.91879       17.87116       -0.834
       27.05479        9.74435       16.95321        0.417
       28.20965       10.05729       17.88072        0.417
       10.20525       22.88877        5.16222       -0.834
        9.43402       23.30287        5.54948        0.417
       10.23948       22.02112        5.56501        0.417
       18.59823       25.93139       17.84067       -0.834
       18.02438       26.69313       17.75888        0.417
       19.02482       26.04242       18.69034        0.417
        9.10386       18.32673       10.54649       -0.834
        8.58341       18.99397       10.09910        0.417
        9.09083       18.58939       11.46685        0.417
        5.33913       12.37670       10.07156       -0.834
        5.00377       13.25695        9.90151        0.417
        4.60852       11.91739       10.48565        0.417
       18.98467       19.93096        3.21289       -0.834
       19.54320       19.49038        2.57245        0.417
       18.86416       20.81254        2.85999        0.417
       15.49763        4.81353        8.27565       -0.834
       16.40137        5.12614        8.31751        0.417
       15.50735        3.98616        8.75689        0.417
       25.58254        5.38033       15.10007       -0.834
       26.16488        5.73052       15.77422        0.417
       24.79246        5.12323       15.57535        0.417
       10.65296       21.69521       16.96816       -0.834
       10.27444       20.82024       17.05413        0.417
       11.44689       21.56337       16.44996        0.417
       22.37790       22.38085       18.84970       -0.834
       22.25894       21.97906       19.71031        0.417
       21.49148       22.46014       18.49727        0.417
       20.00786       30.83173       18.98284       -0.834
       19.55652       30.10795       19.41719        0.417
       20.62837       30.40682       18.39068        0.417
       30.29568       11.51584       13.06979       -0.834
       29.51556       11.46179       12.51778        0.417
       30.88339       10.84565       12.72099        0.417
       26.28253       14.75392        5.47749       -0.834
       26.55782       15.54462        5.94142        0.417
       26.24521       14.07884        6.15507        0.417
       12.39074       24.38752        4.77933       -0.834
       12.98480       24.10467        5.47455        0.417
       11.59515       23.87419        4.91989        0.417
       19.22727        9.44727       28.30740       -0.834
       19.90977        9.05340       28.85080        0.417
       19.61983        9.50935       27.43661        0.417
       10.82622        9.76895       15.12539       -0.834
       11.77864        9.86115       15.10028        0.417
       10.53948       10.41524       15.77062        0.417
        8.41648        9.90803       13.56262       -0.834
        9.32194        9.72618       13.81424        0.417
        8.39383       10.85341       13.41440        0.417
       13.98835        9.51948       26.16861       -0.834
       13.78869        9.15961       27.03282        0.417
       14.51753        8.84433       25.74391        0.417
       12.32636       16.36785       13.46830       -0.834
       12.26818       15.48095       13.11298        0.417
       12.80770       16.86134       12.80421        0.417
        7.95794       25.40878       18.16284       -0.834
        8.04035       25.03294       19.03930        0.417
        8.54333       24.88122       17.61949        0.417
       10.47342       18.94066       17.34255       -0.834
       11.19126       18.54850       16.84542        0.417
       10.15926       18.23489       17.90773        0.417
       22.18406        6.49189       24.27582       -0.834
       21.23763        6.47887       24.41847        0.417
       22.30705        6.04119       23.44037        0.417
       22.50373       25.10100       15.31029       -0.834
       23.42758       25.34605       15.25856        0.417
       22.19128       25.51171       16.11647        0.417
       22.75009       20.61257       26.04430       -0.834
       23.02617       21.38667       26.53500        0.417
       21.79713       20.68738       25.99432        0.417
        7.09416       20.12420        9.28642       -0.834
        6.77889       19.80851        8.43955        0.417
        7.17627       21.07123        9.17408        0.417
       23.88559       11.33445       23.47089       -0.834
       24.25128       10.64317       24.02283        0.417
       23.07254       11.58629       23.90880        0.417
       16.61083        2.71414       15.01168       -0.834
       16.34364        3.61900       14.85021        0.417
       15.82772        2.19592       14.82614        0.417
       19.51959        3.87569       25.30072       -0.834
       19.78156        3.78461       26.21686        0.417
       19.24818        4.78991       25.21847        0.417
        2.88665       19.56322       23.05337       -0.834
        3.14716       18.64227       23.06854        0.417
        2.39087       19.65901       22.24019        0.417
       16.84989       28.09433       17.40825       -0.834
       15.92763       28.11823       17.15310        0.417
       16.97692       28.89064       17.92398        0.417
       22.66659       12.07602        9.08587       -0.834
       22.88349       11.58472        8.29353        0.417
       22.11879       12.79812        8.77809        0.417
       24.98896        7.20177       22.35749       -0.834
       24.25877        7.55918       21.85222        0.417
       25.75146        7.69940       22.06221        0.417
       25.76652       17.10846       27.71727       -0.834
       24.96009       17.62258       27.67735        0.417
       25.70029       16.50057       26.98086        0.417
        8.54032       24.26602        7.26424       -0.834
        7.85706       24.76903        6.82112        0.417