%Nproc=32
%Mem=120Gb
%chk=temp.chk
#p cam-b3lyp/6-31+G(d,p) nosymm charge Freq 

Calculation for S0 with freq for abs spect

0  1
 C         17.55593       17.45000       17.18198
 C         15.50654       16.30918       17.73560
 C         15.56173       15.56043       16.66100
 C         16.58006       15.81559       15.55225
 N         17.56260       16.70093       15.97064
 H         14.72165       16.18045       18.44434
 H         14.86442       14.80285       16.46744
 O         16.67253       15.34294       14.43816
 O         18.36508       18.31363       17.49700
 N         16.42828       17.30223       17.96365
 H         16.31912       18.01659       18.67832
 H         18.39483       16.73298       15.42431
 O         21.53869       18.26886       17.25692
 H         21.04708       17.94736       16.50115
 H         22.31681       17.71245       17.29141
 O         16.42226       20.83267       15.54026
 H         17.20700       20.84923       16.08810
 H         16.33851       21.72859       15.21384
 O         17.22925       19.12080       12.98411
 H         17.45025       19.70390       12.25790
 H         16.41086       19.47290       13.33410
 O         12.63642       16.14445       14.13314
 H         12.81068       16.58745       13.30271
 H         13.09682       16.67050       14.78700
 O         15.87306       17.72018       21.06789
 H         16.40892       18.40660       21.46528
 H         15.80007       17.04943       21.74686
 O         20.19592       19.76616       19.12873
 H         20.47756       19.29879       18.34229
 H         19.64906       19.13685       19.59898
 O         14.83869       12.45294       16.40434
 H         14.42541       12.32462       17.25814
 H         15.16824       11.58682       16.16463
 O         17.18109       12.67887       20.62250
 H         17.56589       12.95965       19.79224
 H         16.35304       13.15595       20.67675
 O         19.69459       14.18838       13.10930
 H         19.29708       15.02276       13.35837
 H         20.63674       14.35649       13.12750
 O         14.04580       13.83216       13.71188
 H         14.65378       13.78795       14.44988
 H         13.56059       14.64578       13.84909
 O         20.05320       20.10958       13.89230
 H         19.87553       20.99962       14.19644
 H         19.25831       19.62032       14.10443
 O         14.28056       20.71294       16.97597
 H         14.34767       20.75681       17.92981
 H         15.18367       20.60863       16.67640
 O         14.39473       19.49545       13.88565
 H         13.86370       19.01901       14.52380
 H         14.67680       20.28402       14.34914
 O         20.50031       16.58234       15.09588
 H         21.12967       16.88881       14.44303
 H         20.81068       15.70962       15.33726
 O         13.85987       18.92079       19.94381
 H         14.40656       18.33025       20.46209
 H         14.39400       19.70741       19.83347
 O         16.74171       13.68050       12.30597
 H         16.53950       13.96235       13.19810
 H         17.68235       13.83193       12.21384
 O         18.87205       18.15768       20.80710
 H         19.39946       17.83986       21.53994
 H         18.04103       17.68976       20.88878
 O         18.19406       16.49462       12.57427
 H         17.60384       16.00987       13.15122
 H         17.97053       17.41391       12.71982
 O         12.88282       18.42443       15.85382
 H         13.16785       19.25350       16.23805
 H         11.92750       18.48255       15.83922
 O         18.82907       13.75560       18.74107
 H         18.79417       13.11236       18.03308
 H         19.28759       14.50534       18.36175
 O         18.70080       12.73974       16.47309
 H         18.65161       11.92173       15.97845
 H         17.82957       13.12629       16.38488
 
        8.81042        8.59914        8.32832       -0.834
        8.77353        7.92622        7.64857        0.417
        8.71162        9.42481        7.85425        0.417
       21.64653       22.83113        5.02225       -0.834
       21.39379       23.57401        4.47408        0.417
       20.93616       22.19906        4.91224        0.417
       14.48721       12.68022        9.29539       -0.834
       15.34690       12.59725        9.70804        0.417
       14.67875       12.90441        8.38474        0.417
       20.51975        6.11032       19.09840       -0.834
       19.73982        5.58337       19.27238        0.417
       21.15141        5.49076       18.73319        0.417
        9.61188       22.17143       17.15667       -0.834
        8.89598       22.60605       17.62016        0.417
       10.39740       22.64510       17.43017        0.417
        8.99590       25.01702       20.57956       -0.834
        9.81605       25.47844       20.40443        0.417
        9.16285       24.11664       20.30083        0.417
       24.27026        4.56597       15.01738       -0.834
       24.29902        3.75128       15.51906        0.417
       23.33685        4.74566       14.90479        0.417
       15.95649       13.36710        3.66447       -0.834
       16.16276       13.82947        2.85213        0.417
       16.58022       12.64157        3.69267        0.417
       21.00393        7.42364       26.76932       -0.834
       21.24498        6.63326       26.28617        0.417
       20.24605        7.16315       27.29277        0.417
       12.01475        6.71518       10.28165       -0.834
       12.67834        7.40496       10.27316        0.417
       12.03084        6.35576        9.39464        0.417
       13.59861        8.40778        5.80415       -0.834
       13.01212        7.79395        5.36202        0.417
       13.01612        9.06781        6.18005        0.417
       19.97772       25.83799       26.77575       -0.834
       19.68669       24.93986       26.93356        0.417
       19.72496       26.31460       27.56644        0.417
       13.50351       17.73433       12.03308       -0.834
       13.76197       18.50021       12.54579        0.417
       14.31589       17.43215       11.62691        0.417
       15.80371       26.02334       23.04520       -0.834
       14.97749       25.89865       22.57825        0.417
       16.04953       26.92974       22.86017        0.417
       29.43744       19.97355       21.96365       -0.834
       29.10710       19.08395       21.83828        0.417
       28.68481       20.53671       21.78299        0.417
       24.91066        8.36047       17.20715       -0.834
       24.03012        8.07971       16.95804        0.417
       25.14879        9.01468       16.55023        0.417
       10.79910       14.03402       18.01298       -0.834
       11.16283       13.67107       17.20538        0.417
        9.88006       13.76662       18.00366        0.417
       16.44538       11.20956       28.01105       -0.834
       16.30427       11.66727       28.83979        0.417
       17.02110       10.47857       28.23561        0.417
       25.88837       20.09994       21.25742       -0.834
       26.03723       21.01787       21.03052        0.417
       25.24956       19.79412       20.61350        0.417
       30.46949       16.94406       22.35810       -0.834
       31.12742       17.30006       22.95528        0.417
       29.64085       17.04423       22.82665        0.417
       14.45836        9.89379       11.04640       -0.834
       13.93364       10.22978       10.31975        0.417
       15.33069       10.26048       10.90216        0.417
       14.17443        6.42768       19.00114       -0.834
       14.80088        6.27555       18.29358        0.417
       13.88951        5.55184       19.26185        0.417
        8.72288       10.49216        6.36018       -0.834
        8.75346       11.42338        6.57957        0.417
        7.86127       10.36751        5.96229        0.417
       26.46526       26.14901        9.20319       -0.834
       25.96125       25.92444        9.98535        0.417
       26.08832       25.60617        8.51075        0.417
       17.33504       12.23827        8.33487       -0.834
       17.94755       11.52352        8.16107        0.417
       17.16567       12.18579        9.27550        0.417
        4.16996       15.65189       24.19824       -0.834
        4.55513       15.61897       23.32257        0.417
        3.81457       16.53769       24.27095        0.417
        9.80880       27.91741       17.80612       -0.834
       10.27962       28.73809       17.66103        0.417
        8.99417       28.01778       17.31364        0.417
        5.63856       21.40040        7.48960       -0.834
        6.19423       20.62100        7.48723        0.417
        5.37584       21.51061        6.57578        0.417
       22.92075       29.32403       21.57791       -0.834
       23.14851       30.10202       22.08692        0.417
       22.51784       28.73148       22.21256        0.417
       17.99161       12.81122       24.40177       -0.834
       18.63756       12.99656       25.08341        0.417
       17.14592       12.94304       24.83033        0.417
       16.52243        4.14469       21.12017       -0.834
       17.30264        4.00168       20.58440        0.417
       16.15541        3.26994       21.24795        0.417
       23.79335       22.42384       10.67314       -0.834
       24.31073       21.70847       11.04301        0.417
       22.93915       22.34693       11.09818        0.417
        4.03789       11.66467       15.13933       -0.834
        4.82388       12.09542       15.47534        0.417
        4.30770       11.29481       14.29870        0.417
       13.27677       23.16560        4.50271       -0.834
       12.63034       23.46027        5.14421        0.417
       12.80449       22.53605        3.95788        0.417
       12.03940       22.61101        9.18073       -0.834
       11.90057       22.46715        8.24464        0.417
       11.45158       21.98865        9.60895        0.417
       19.58653       19.15796       23.54970       -0.834
       20.43604       18.92874       23.17284        0.417
       19.72766       19.12741       24.49595        0.417
       22.31157       13.65701       27.99630       -0.834
       23.05398       13.13365       27.69439        0.417
       22.27109       13.49480       28.93879        0.417
       10.10075       20.57357       29.80086       -0.834
       10.87582       20.48573       30.35563        0.417
       10.19803       19.88603       29.14202        0.417
        6.43645       25.16379        8.96486       -0.834
        6.73459       25.31548        9.86171        0.417
        5.52841       24.87608        9.05925        0.417
       19.18597        5.88800       15.14403       -0.834
       18.56166        5.94069       14.42037        0.417
       19.01410        6.67123       15.66676        0.417
       26.85454       11.42063       24.89183       -0.834
       27.50962       11.09330       24.27542        0.417
       26.36370       12.07535       24.39518        0.417
        9.74041       21.85999        7.35364       -0.834
        9.88428       21.00582        6.94630        0.417
        9.42591       21.65594        8.23437        0.417
       11.36074       11.90851       13.04278       -0.834
       11.01808       11.55409       12.22229        0.417
       12.23565       11.52830       13.12160        0.417
        7.46908       22.14837        9.27344       -0.834
        6.86333       22.37523        8.56787        0.417
        7.78721       22.99123        9.59690        0.417
       26.29628        7.96772       19.44856       -0.834
       25.79571        8.21579       18.67130        0.417
       25.63238        7.72927       20.09556        0.417
       25.21852       14.78107       12.92264       -0.834
       25.16863       15.25764       13.75126        0.417
       25.84892       15.27560       12.39894        0.417
       14.70076       24.27407       19.82995       -0.834
       14.49984       24.57296       18.94309        0.417
       14.26932       24.90973       20.40094        0.417
       28.77522       23.25422       23.74216       -0.834
       29.41189       23.06929       23.05175        0.417
       27.99824       23.56252       23.27580        0.417
       26.16117       20.06864        7.78747       -0.834
       26.02315       20.97788        7.52204        0.417
       26.46451       19.62999        6.99261        0.417
       10.13029       13.11466        3.67134       -0.834
       10.92303       12.60859        3.84931        0.417
       10.09239       13.75808        4.37901        0.417
       21.39018        8.65301       24.08359       -0.834
       22.03268        9.24675       24.47205        0.417
       20.96560        8.23531       24.83292        0.417
       27.39662       15.33923       16.43429       -0.834
       26.57566       15.02195       16.05802        0.417
       27.87109       15.71498       15.69273        0.417
       28.12497       10.69427       13.30328       -0.834
       27.85818       11.08881       12.47299        0.417
       28.65040       11.36976       13.73210        0.417
        6.28921       23.14414       17.07249       -0.834
        7.05114       23.67375       16.83753        0.417
        6.59659       22.58458       17.78568        0.417
       12.96010       19.86164        6.52376       -0.834
       13.05355       19.33529        7.31778        0.417
       13.84959       20.15238        6.32250        0.417
       23.25225       13.25305        7.02438       -0.834
       23.60549       12.47151        7.44940        0.417
       24.02379       13.77152        6.79603        0.417
       23.33883       30.57089       17.29779       -0.834
       22.96146       29.72075       17.52384        0.417
       23.76197       30.86751       18.10352        0.417
        8.38560       11.96826       25.06828       -0.834
        8.66644       12.00411       25.98265        0.417
        7.50702       12.34814       25.07201        0.417
       10.11629       17.18076       18.39163       -0.834
        9.96904       16.47415       19.02032        0.417
        9.90374       16.79429       17.54210        0.417
        6.75259       17.97061       15.48495       -0.834
        6.43917       17.75360       14.60694        0.417
        6.74015       18.92727       15.51458        0.417
        6.46470       19.78678       19.55200       -0.834
        6.65842       19.26008       20.32742        0.417
        6.79120       19.26441       18.81936        0.417
        8.28049        4.78750       22.47141       -0.834
        8.65045        5.09876       21.64528        0.417
        8.99349        4.87945       23.10340        0.417
       18.02055       23.71346       26.29740       -0.834
       18.37827       22.93023       25.87929        0.417
       17.19014       23.86789       25.84706        0.417
        7.37690       24.72595       11.68751       -0.834
        7.88786       24.12840       12.23349        0.417
        6.57387       24.87876       12.18553        0.417
       23.92713       20.03927       23.61189       -0.834
       23.16970       20.09505       23.02929        0.417
       24.67285       20.27263       23.05901        0.417
       26.78044       16.86366       19.73155       -0.834
       27.20567       17.40772       20.39443        0.417
       26.70634       17.43275       18.96547        0.417
       22.15546       14.84785       12.87497       -0.834
       22.29067       15.78496       13.01557        0.417
       23.01177       14.52047       12.59969        0.417
       20.00914       30.21016       19.43760       -0.834
       20.22026       31.14375       19.42893        0.417
       20.50354       29.84549       18.70355        0.417
       25.72679       13.14828       23.10411       -0.834
       25.00989       12.65384       22.70684        0.417
       26.17420       13.55873       22.36411        0.417
       13.67368       25.42182       12.61737       -0.834
       13.65936       24.77037       11.91620        0.417
       14.07209       26.19526       12.21825        0.417
       14.68616        8.45892       23.08134       -0.834
       15.59973        8.17472       23.05211        0.417
       14.18057        7.65218       22.98243        0.417
        8.22447       16.23751       20.50983       -0.834
        7.85517       15.67834       21.19333        0.417
        8.14126       17.12613       20.85575        0.417
        8.81269       22.90264       13.07642       -0.834
        9.76701       22.86190       13.01442        0.417
        8.57430       22.14462       13.61010        0.417
       17.03169       23.60024       22.57770       -0.834
       16.45046       23.04407       23.09643        0.417
       16.67128       24.48154       22.67593        0.417
       11.76565       16.74294        2.31216       -0.834
       12.57309       16.38511        2.68124        0.417
       11.21603       16.92973        3.07325        0.417
       15.33602       20.41174        3.64986       -0.834
       14.65413       20.86922        3.15796        0.417
       15.20963       20.69493        4.55544        0.417
       10.75253        7.67734       21.88122       -0.834
       11.52763        7.12475       21.78075        0.417
       10.81315        8.01563       22.77460        0.417
       10.29337       20.47768       22.51002       -0.834
       10.64717       21.35960       22.62526        0.417
       11.01421       19.97816       22.12648        0.417
       26.60799        6.48910       15.06471       -0.834
       25.76881        6.06070       15.23346        0.417
       26.57076        7.29880       15.57385        0.417
       20.37216       15.32152        3.74053       -0.834
       19.91653       14.71076        3.16122        0.417
       19.67641       15.72270        4.26131        0.417
       20.68752        4.05488       11.30585       -0.834
       21.39579        4.20094       10.67876        0.417
       20.66124        4.85598       11.82908        0.417
       21.23600        9.98718        3.34343       -0.834
       21.39129       10.44760        4.16813        0.417
       20.73552        9.21029        3.59285        0.417
       16.46596       30.00178       11.70243       -0.834
       16.19020       30.88217       11.44727        0.417
       16.59826       29.54202       10.87337        0.417
       12.08861       12.89694       15.73192       -0.834
       12.97765       13.17535       15.51212        0.417
       11.59842       12.99246       14.91532        0.417
       27.74862       17.99778       22.33150       -0.834
       27.54783       17.79220       23.24454        0.417
       27.04301       18.58323       22.05655        0.417
       19.53197       22.44773       11.22894       -0.834
       19.54648       22.89404       12.07560        0.417
       19.15260       21.58921       11.41668        0.417
       16.78402       11.11574       10.76920       -0.834
       16.81062       11.79872       11.43932        0.417
       17.36414       10.43073       11.10153        0.417
       16.85935        2.27591       14.94537       -0.834
       17.81011        2.36315       15.01372        0.417
       16.72825        1.53809       14.34984        0.417
       24.09200        9.72578       13.31049       -0.834
       24.08621        9.32776       12.43998        0.417
       24.03946       10.66699       13.14437        0.417
        7.70679       19.16816        7.19071       -0.834
        7.60325       19.56376        8.05616        0.417
        8.59418       18.80935        7.19545        0.417
        5.43183        6.61489       17.93733       -0.834
        5.25443        6.34337       18.83791        0.417
        5.54745        7.56357       17.99106        0.417
        5.95145       13.24576       24.55573       -0.834
        5.37153       12.49413       24.43334        0.417
        5.80383       13.51780       25.46151        0.417
       25.76691       18.15227        5.56532       -0.834
       26.65474       17.92479        5.28920        0.417
       25.31506       18.38361        4.75381        0.417
       20.37973       23.11597       28.52997       -0.834
       21.30073       23.09217       28.78962        0.417
       20.25231       22.31368       28.02368        0.417
       24.63904       25.39457       11.31715       -0.834
       24.74502       25.20653       12.24970        0.417
       24.29412       24.58235       10.94625        0.417
       21.91893       16.83739       28.48556       -0.834
       21.07307       16.98835       28.90742        0.417
       21.76716       16.09316       27.90304        0.417
       10.36013        8.42119       13.73594       -0.834
        9.70494        7.79887       13.42024        0.417
        9.97475        9.28117       13.56815        0.417
       26.92435       16.22765       11.13796       -0.834
       26.66947       17.07023       10.76203        0.417
       26.91027       15.62062       10.39800        0.417
        9.23493       14.61788       27.30704       -0.834
        8.59231       14.89404       27.96050        0.417
        8.75707       14.63613       26.47786        0.417
       18.28578       20.05842       10.68736       -0.834
       17.73112       20.26312        9.93457        0.417
       19.15277       19.90477       10.31193        0.417
        6.51690       23.18917       25.32785       -0.834
        6.54337       22.23455       25.39300        0.417
        7.43630       23.45262       25.28864        0.417
       31.62281       15.88099       17.84576       -0.834
       30.79841       16.35963       17.93230        0.417
       31.61131       15.54314       16.95024        0.417
       24.50851       25.11179       14.00506       -0.834
       25.10375       24.43685       14.33121        0.417
       23.73170       24.62989       13.72120        0.417
       17.54694       23.76730       20.05792       -0.834
       17.19363       23.63120       20.93706        0.417
       17.40553       22.93293       19.61063        0.417
       10.25384       18.83329        6.45405       -0.834
       10.20708       18.71711        5.50508        0.417
       11.12360       19.20209        6.60811        0.417
       25.15626       23.28714       25.53446       -0.834
       24.55920       23.82986       25.01948        0.417
       25.83762       23.89198       25.82798        0.417
       20.74171       11.52219       12.31747       -0.834
       20.45882       12.35208       12.70150        0.417
       21.45207       11.76276       11.72270        0.417
        6.13861       17.47035       12.94037       -0.834
        6.48114       16.69642       12.49324        0.417
        5.47178       17.81515       12.34649        0.417
       12.75431       14.04748       11.19653       -0.834
       12.89144       13.95940       12.13975        0.417
       13.26429       13.33439       10.81226        0.417
       14.13113        6.09760       15.19817       -0.834
       14.65554        5.29727       15.17172        0.417
       13.78421        6.18663       14.31050        0.417
       29.58019       13.41151       19.52305       -0.834
       30.37012       13.59687       20.03088        0.417
       29.41209       14.21906       19.03742        0.417
       21.88951       23.29569       13.15083       -0.834
       21.51810       23.94815       12.55703        0.417
       21.36399       23.36946       13.94745        0.417
       16.26067       25.43156        5.99925       -0.834
       16.59421       24.53523        6.03903        0.417
       15.33740       25.33393        5.76626        0.417
       12.42984       20.33033       24.70712       -0.834
       11.54870       20.45742       25.05878        0.417
       12.29163       19.90167       23.86250        0.417
        1.46694       13.20605       15.60743       -0.834
        0.89148       12.64611       15.08633        0.417
        2.34808       13.00285       15.29352        0.417
       25.84932       13.16114        6.01259       -0.834
       26.03931       12.48884        5.35827        0.417
       26.16904       13.97407        5.62124        0.417
       11.43476       23.97191       18.02732       -0.834
       11.80969       23.34109       18.64191        0.417
       11.46696       24.80806       18.49213        0.417
       26.52147       21.50244       17.37751       -0.834
       26.56578       20.58346       17.64160        0.417
       25.61256       21.75515       17.53954        0.417
       21.76903        2.26641       14.28279       -0.834
       22.28016        2.12919       13.48520        0.417
       21.55576        3.19950       14.27360        0.417
       24.73633       28.48206       12.36000       -0.834
       24.07653       28.15479       11.74861        0.417
       25.45263       27.84986       12.30112        0.417
       24.76512       15.69570        6.30226       -0.834
       23.81699       15.81667        6.25086        0.417
       25.12383       16.58079        6.23764        0.417
       20.49967        6.85135        8.73297       -0.834
       20.49309        7.23885        9.60821        0.417
       21.40921        6.58732        8.59424        0.417
       22.10304       10.29146        9.21962       -0.834
       21.93433       10.28819        8.27741        0.417
       21.31723        9.90436        9.60548        0.417
       24.36858       20.99766       14.51409       -0.834
       24.23750       21.72494       15.12245        0.417
       23.67905       21.10552       13.85899        0.417
       22.38756       17.52553       13.30216       -0.834
       22.11983       18.28925       12.79100        0.417
       23.23396       17.77137       13.67553        0.417
       23.80323        9.51938        6.81095       -0.834
       24.24475        9.49364        5.96206        0.417
       22.89639        9.74444        6.60307        0.417
       19.34413       26.69975        6.50834       -0.834
       18.51123       26.22848        6.48763        0.417
       19.26801       27.35230        5.81220        0.417
        3.14002       20.31190       14.54070       -0.834
        2.72102       19.60019       14.05681        0.417
        2.84340       20.19560       15.44332        0.417
       22.91899       14.18353        4.06557       -0.834
       23.00550       13.70242        4.88854        0.417
       22.02793       14.53265        4.08419        0.417
       16.30024       23.13920       13.98277       -0.834
       16.44094       24.07048       14.15347        0.417
       15.83033       23.11633       13.14916        0.417
       31.44174       15.49160       15.05757       -0.834
       31.12088       16.38884       15.14842        0.417
       31.30963       15.28194       14.13301        0.417
       14.54067       28.23672       25.57342       -0.834
       15.16075       28.95011       25.42245        0.417
       15.05225       27.44014       25.43208        0.417
       17.50556       17.02283       25.27070       -0.834
       16.95068       16.87501       24.50488        0.417
       16.90072       17.31558       25.95239        0.417
       17.56137       20.32268        1.99986       -0.834
       16.68271       20.14509        2.33551        0.417
       17.85072       19.48801        1.63132        0.417
       28.57674       18.74464       26.44097       -0.834
       27.82435       18.26551       26.78821        0.417
       28.19890       19.36724       25.81981        0.417
       20.32584        7.58186       11.57120       -0.834
       20.68422        7.86808       12.41136        0.417
       19.42882        7.31452       11.77149        0.417
       10.76760       16.01924       21.57508       -0.834
        9.93649       16.40685       21.30075        0.417
       10.51766       15.22580       22.04859        0.417
       10.84511       26.69100       22.56101       -0.834
       11.35670       26.73923       23.36859        0.417
        9.93412       26.73969       22.85076        0.417
        8.33064        8.37672       11.11628       -0.834
        7.93572        9.24865       11.12004        0.417
        8.61785        8.24725       10.21242        0.417
        5.82157       23.45327       21.49746       -0.834
        6.11019       24.31671       21.79310        0.417
        4.87766       23.44835       21.65632        0.417
        5.65103       16.14078       26.81062       -0.834
        4.94780       16.03428       26.17003        0.417
        5.53616       15.40908       27.41697        0.417
       26.20640       18.68628        9.96697       -0.834
       26.18038       19.29104       10.70846        0.417
       26.18035       19.25173        9.19507        0.417
       21.81137       19.63095       21.87115       -0.834
       22.02538       19.03995       21.14924        0.417
       21.37272       20.37178       21.45283        0.417
       10.20141       10.57354       28.44324       -0.834
       10.15424        9.79498       28.99808        0.417
        9.28995       10.84306       28.32993        0.417
       12.17338       26.81259       24.91493       -0.834
       12.89240       27.43982       24.99132        0.417
       12.39967       26.11240       25.52710        0.417
       20.65123       12.66668       24.63322       -0.834
       19.97684       13.01845       24.05211        0.417
       21.37742       13.28604       24.56068        0.417
        1.86828       17.91847       13.54275       -0.834
        1.51286       17.21243       14.08257        0.417
        2.44540       17.47693       12.91968        0.417
       27.97183       21.97398       20.50111       -0.834