%Nproc=32
%Mem=120Gb
%chk=temp.chk
#p cam-b3lyp/6-31+G(d,p) nosymm charge Freq 

Calculation for S0 with freq for abs spect

0  1
 C         16.76405       17.26016       17.86293
 C         16.25606       15.41248       16.39769
 C         16.52429       16.17965       15.31351
 C         16.85916       17.58375       15.42355
 N         16.99207       18.01931       16.75339
 H         15.97722       14.31966       16.31582
 H         16.50002       15.79232       14.29505
 O         16.95177       18.30346       14.45217
 O         16.86247       17.68244       18.99955
 N         16.32267       15.93241       17.62812
 H         16.15833       15.37213       18.44423
 H         17.31737       18.97494       16.97022
 O         11.93210       14.65221       18.47767
 H         10.99742       14.82008       18.59776
 H         12.34414       15.51112       18.57114
 O         17.58387       21.09301       17.48799
 H         16.65365       21.16427       17.70208
 H         18.03440       21.44731       18.25462
 O         12.61373       16.89810       15.25076
 H         11.68717       16.68182       15.14616
 H         12.87672       17.24570       14.39857
 O         14.41621       13.30759       19.04142
 H         14.35251       13.01967       19.95206
 H         13.53880       13.62528       18.82824
 O         13.59278       16.48400       20.03778
 H         14.32078       16.44490       20.65804
 H         12.82708       16.67816       20.57837
 O         17.14557       14.93749       20.35324
 H         16.45638       15.32207       20.89486
 H         17.94659       15.37972       20.63437
 O         17.93202       18.70352       21.42064
 H         18.67742       19.12164       20.98962
 H         17.36610       18.42199       20.70181
 O         13.09018       13.96685       14.75842
 H         12.79219       14.71026       15.28261
 H         12.42182       13.86806       14.08035
 O         19.39648       18.80397       13.80477
 H         19.58959       17.97666       13.36375
 H         18.48315       18.72212       14.07927
 O         15.66124       20.33276       19.97622
 H         15.23040       20.47023       20.81984
 H         15.58419       19.39190       19.81787
 O         12.74944       18.17342       17.64012
 H         13.00957       17.61757       18.37469
 H         12.79504       17.59847       16.87619
 O         13.05916       20.91541       17.56132
 H         13.19412       19.97484       17.67682
 H         12.11906       21.04064       17.69077
 O         15.39081       12.92762       13.80492
 H         14.50043       12.97667       14.15285
 H         15.35591       13.42153       12.98575
 O         14.72476       19.42291       13.05161
 H         15.48137       19.11287       13.54924
 H         14.11506       19.74304       13.71645
 O         20.08723       16.15831       13.02779
 H         20.00344       15.55982       13.77010
 H         19.84716       15.63084       12.26596
 O         19.23785       13.62356       14.68521
 H         18.30683       13.81129       14.80442
 H         19.37720       12.79726       15.14781
 O         15.78217       17.25108       11.47668
 H         15.36462       17.93574       11.99927
 H         16.17309       17.71778       10.73803
 
       16.06695        9.78706        6.55465       -0.834
       16.83958       10.29137        6.80949        0.417
       16.41642        9.04697        6.05830        0.417
       19.29906        9.53248        4.67534       -0.834
       19.62840        9.30214        5.54408        0.417
       19.38005       10.48531        4.63285        0.417
       10.38884       23.06900        5.51436       -0.834
       10.88311       23.75553        5.96225        0.417
       10.33435       22.35744        6.15229        0.417
       15.43232        5.18492       16.37937       -0.834
       15.17314        4.28324       16.18955        0.417
       15.21623        5.66951       15.58268        0.417
       19.11818       28.76659       25.44723       -0.834
       19.17553       27.98707       24.89471        0.417
       19.78067       29.36037       25.09402        0.417
       20.41761       18.80845       19.87083       -0.834
       20.67776       17.92060       19.62532        0.417
       20.63268       19.34179       19.10563        0.417
       21.82590        5.45283       22.14426       -0.834
       21.35712        5.80983       22.89861        0.417
       21.71354        4.50515       22.21841        0.417
       15.02237        2.37402       16.34133       -0.834
       15.68348        1.68371       16.29032        0.417
       14.19803        1.93237       16.13724        0.417
       25.74034       18.56619       21.84970       -0.834
       26.21649       18.43723       21.02941        0.417
       25.68627       19.51670       21.94892        0.417
       23.99645       23.84154       10.60157       -0.834
       24.33462       23.51916       11.43700        0.417
       24.75920       23.85604       10.02344        0.417
       20.72964       23.43366       19.07789       -0.834
       21.22510       23.42403       19.89683        0.417
       19.82495       23.26750       19.34278        0.417
       16.04774       28.47040       24.83899       -0.834
       16.20458       29.08226       24.11978        0.417
       15.59934       28.99218       25.50451        0.417
       19.50554        8.12080        7.19608       -0.834
       19.77005        7.23814        6.93690        0.417
       18.61744        8.01479        7.53705        0.417
       12.74465       11.82476        2.58340       -0.834
       13.66711       11.73855        2.82397        0.417
       12.54346       12.74884        2.73110        0.417
       13.26785       12.32635       29.15672       -0.834
       12.47430       12.09641       29.64007        0.417
       13.96715       12.28288       29.80888        0.417
        8.64888       24.72911       26.85215       -0.834
        8.78384       24.76029       25.90503        0.417
        8.87094       23.83073       27.09676        0.417
       18.14347        4.45403       20.61689       -0.834
       18.73197        3.99845       20.01494        0.417
       17.29375        4.03313       20.48633        0.417
       28.50365       23.35942       17.66540       -0.834
       28.27757       23.59306       16.76510        0.417
       29.17959       22.68754       17.57645        0.417
       14.45319       23.20898       17.12299       -0.834
       14.64202       23.05405       16.19748        0.417
       13.77261       22.57152       17.33905        0.417
       14.13657       28.34341       19.47920       -0.834
       13.47608       28.26150       18.79125        0.417
       14.52345       29.20760       19.33878        0.417
       12.46707       14.70360        3.19924       -0.834
       12.48912       15.61735        2.91496        0.417
       11.56714       14.56590        3.49488        0.417
        8.56168       25.14597        8.84299       -0.834
        9.19832       24.95819        9.53267        0.417
        8.17280       24.29583        8.63741        0.417
       20.22612       20.71025       28.71803       -0.834
       20.05547       21.61802       28.46691        0.417
       19.66837       20.19189       28.13799        0.417
       18.25221        9.50922       16.95358       -0.834
       18.15288        8.77114       17.55491        0.417
       17.79069       10.23074       17.38093        0.417
        4.98261       11.66299       13.96202       -0.834
        5.14259       11.10895       14.72601        0.417
        4.66756       11.05917       13.28943        0.417
       17.76125       28.30286       13.16688       -0.834
       18.30294       28.50349       13.93013        0.417
       16.86149       28.39261       13.48090        0.417
       15.32335       14.20960        2.78101       -0.834
       15.96970       14.33669        3.47548        0.417
       14.50188       14.52600        3.15691        0.417
        9.95894       25.54321       14.51267       -0.834
        9.04421       25.79855       14.63223        0.417
       10.43026       26.00841       15.20381        0.417
       28.68698       12.20432       14.64711       -0.834
       29.56511       11.94205       14.37081        0.417
       28.16406       12.17333       13.84597        0.417
       13.33753       20.67211       11.07467       -0.834
       13.46690       21.61460       11.18052        0.417
       13.74175       20.28564       11.85151        0.417
       12.73418       20.17480       21.60190       -0.834
       12.61432       21.08665       21.33655        0.417
       12.90222       20.21889       22.54320        0.417
       10.27134       17.66875        9.27975       -0.834
        9.89289       17.30568        8.47901        0.417
       10.89218       17.00277        9.57516        0.417
       22.35441       20.28060       14.59387       -0.834
       22.78579       19.65280       14.01422        0.417
       21.51157       20.45435       14.17475        0.417
        9.63015       22.13592       27.48774       -0.834
       10.38851       21.65861       27.15113        0.417
        9.77008       22.17220       28.43396        0.417
       15.24423       21.53693       30.37861       -0.834
       15.66028       21.55431       29.51675        0.417
       15.74408       22.16574       30.89913        0.417
        6.48337       22.89866       24.10695       -0.834
        7.16360       22.33903       24.48154        0.417
        6.96431       23.56707       23.61894        0.417
       24.34058       20.32301        6.66563       -0.834
       23.63120       19.68047        6.67760        0.417
       24.00273       21.04361        6.13381        0.417
       10.78114       10.67946        3.86802       -0.834
       11.28862       10.23727        4.54858        0.417
       11.43951       11.04718        3.27847        0.417
       29.58507       14.84273        8.82039       -0.834
       28.68710       14.98187        9.12128        0.417
       29.97067       14.26194        9.47631        0.417
       20.90783       17.29601       23.68522       -0.834
       20.92395       16.58802       24.32921        0.417
       20.47889       18.02230       24.13772        0.417
       21.08502       25.99325       26.26062       -0.834
       20.62676       25.19349       26.51872        0.417
       21.65781       25.72091       25.54370        0.417
       27.87296       22.32076       23.32192       -0.834
       27.25751       22.16888       24.03913        0.417
       27.50497       21.83591       22.58318        0.417
       25.86000       28.12527       16.13502       -0.834
       26.02506       27.27089       16.53381        0.417
       25.17156       27.96041       15.49074        0.417
       21.29532       16.14361       19.35706       -0.834
       21.43897       15.69565       18.52344        0.417
       21.24702       15.43888       20.00300        0.417
       25.98529       28.07443       20.45032       -0.834
       26.05605       27.88285       21.38548        0.417
       25.12674       27.73334       20.19976        0.417
       15.96326       14.61974       11.01955       -0.834
       15.83522       15.56493       11.09994        0.417
       16.87891       14.52300       10.75791        0.417
       12.47175       22.91785       21.42131       -0.834
       11.58661       23.00834       21.06838        0.417
       12.90121       23.74616       21.20750        0.417
       25.66115       16.40679       27.73115       -0.834
       25.88405       16.63447       26.82854        0.417
       24.99341       17.04518       27.98177        0.417
       18.80026        8.57064       27.54739       -0.834
       19.43005        8.21811       28.17613        0.417
       18.06495        7.95846       27.57532        0.417
       14.16129        1.69353       13.32264       -0.834
       13.96369        2.55725       12.96046        0.417
       15.07816        1.75015       13.59169        0.417
        9.94308       20.77463       13.38630       -0.834
       10.51949       21.52781       13.25705        0.417
       10.10262       20.21688       12.62493        0.417
       20.79803        8.43431       24.81202       -0.834
       20.61245        7.78951       24.12936        0.417
       21.34355        9.09134       24.37963        0.417
       14.91937       12.23261       23.93360       -0.834
       15.47937       11.53586       23.59130        0.417
       14.55263       11.87113       24.74049        0.417
       11.26325       11.88928       18.29588       -0.834
       11.21870       11.77384       17.34671        0.417
       11.68913       12.73825       18.41465        0.417
       22.99926        7.44285       10.61667       -0.834
       22.39947        8.03935       11.06465        0.417
       23.05784        7.78623        9.72511        0.417
       13.24802        8.61196       24.77709       -0.834
       13.00286        9.38595       25.28411        0.417
       12.83050        8.74082       23.92543        0.417
        6.64470        8.21028       15.51020       -0.834
        6.85943        8.19680       14.57750        0.417
        7.11461        7.46063       15.87551        0.417
       21.90918        7.41359       20.38210       -0.834
       21.78018        6.64683       20.94037        0.417
       21.56139        8.14411       20.89360        0.417
       16.50141        7.04898       28.07105       -0.834
       16.03205        6.33629       27.63745        0.417
       16.08512        7.84564       27.74201        0.417
       12.35880        5.07285       21.54716       -0.834
       12.92829        5.60678       22.10109        0.417
       12.74652        5.13474       20.67419        0.417
       18.19060        5.47147       10.87735       -0.834
       18.25311        5.58166       11.82613        0.417
       17.50313        4.81647       10.75659        0.417
       11.51234       22.04425        9.57561       -0.834
       11.86105       21.41826       10.21025        0.417
       11.21173       21.50337        8.84532        0.417
       20.89071       12.40914        8.72054       -0.834
       20.78176       11.58278        9.19116        0.417
       21.78597       12.37705        8.38334        0.417
        4.97297       18.37568       16.73138       -0.834
        5.81012       18.52757       17.16994        0.417
        4.68910       19.24492       16.44842        0.417
       24.64419       26.23791       14.38239       -0.834
       24.45804       25.30006       14.33732        0.417
       25.31105       26.38275       13.71116        0.417
       26.18413       26.11472       12.05516       -0.834
       26.05395       26.39947       11.15061        0.417
       26.92204       25.50659       12.01147        0.417
       10.94313        8.04939        9.02324       -0.834
       11.73307        7.80263        8.54227        0.417
       10.22931        7.62773        8.54481        0.417
       18.28144       13.03619       24.95037       -0.834
       18.84149       12.31152       25.22864        0.417
       17.47558       12.92401       25.45459        0.417
       10.42421       15.25817       12.65355       -0.834
        9.62886       15.22422       12.12205        0.417
       10.13710       15.61908       13.49233        0.417
       18.02764       26.62604       24.11680       -0.834
       17.28822       27.20107       24.31386        0.417
       17.63159       25.76655       23.97307        0.417
        6.09039        7.58717       19.15879       -0.834
        5.35240        6.97957       19.20810        0.417
        6.64588        7.23413       18.46379        0.417
       23.51826       20.75421       19.20342       -0.834
       22.98669       20.60565       18.42137        0.417
       24.27208       20.17437       19.09492        0.417
       15.87884        3.56910       19.03073       -0.834
       16.05469        2.73904       19.47380        0.417
       15.66147        3.32026       18.13236        0.417
       26.24926       22.56893       25.74033       -0.834
       26.27397       22.24561       26.64093        0.417
       26.49345       23.49184       25.80989        0.417
       26.58335       20.60664       18.50715       -0.834
       26.14104       20.87460       17.70167        0.417
       27.33578       20.09552       18.20912        0.417
       25.04878       19.13885        4.32986       -0.834
       24.24388       19.22450        3.81894        0.417
       24.86187       19.59495        5.15039        0.417
       16.48712       20.34510       22.72403       -0.834
       17.09423       19.76066       22.27007        0.417
       17.03004       21.07950       23.01063        0.417
       29.31997       22.92191       13.71829       -0.834
       30.03661       23.19402       14.29154        0.417
       29.36768       21.96592       13.71172        0.417
       16.58478       28.75539       10.36436       -0.834
       17.31360       28.97978       10.94289        0.417
       15.80137       28.96086       10.87453        0.417
       29.12472       13.94688       18.59390       -0.834
       28.54779       14.22404       19.30564        0.417
       29.79468       14.62903       18.54857        0.417
       26.75557       15.64215       24.53724       -0.834
       26.72293       14.68652       24.49316        0.417
       27.41833       15.82923       25.20205        0.417
        8.38498       10.49075       12.06026       -0.834
        8.34064       10.16469       12.95912        0.417
        9.13237       11.08878       12.05849        0.417
       19.56319       17.75485        2.20522       -0.834
       19.28723       16.83941        2.25035        0.417
       18.77977       18.25340        2.43747        0.417
        6.08435       16.51480       19.40487       -0.834
        5.19181       16.18069       19.49419        0.417
        6.55478       15.82176       18.94159        0.417
       31.53551       14.37959       16.32656       -0.834
       30.93689       13.89010       16.89072        0.417
       30.96767       14.96268       15.82277        0.417
       17.84686       22.39870       20.18694       -0.834
       17.10399       21.80359       20.28798        0.417
       17.50831       23.11645       19.65173        0.417
       15.29455        4.77242        9.27565       -0.834
       14.63836        4.07654        9.31304        0.417
       15.04323        5.37703        9.97388        0.417
       23.12682       12.30777       21.83136       -0.834
       23.65187       12.95201       21.35649        0.417
       23.76610       11.79397       22.32488        0.417
        9.45737       22.26676       15.68432       -0.834
        8.71182       22.81220       15.43354        0.417
        9.68107       21.78521       14.88789        0.417
       19.14303        6.87381       22.91405       -0.834
       18.85275        7.02934       22.01528        0.417
       19.42761        5.95991       22.91958        0.417
       20.10411       10.15110        9.87520       -0.834
       20.41770        9.39478       10.37106        0.417
       19.20173        9.92980        9.64506        0.417
       14.05324       17.45406       27.83202       -0.834
       13.91451       16.54770       27.55724        0.417
       14.98480       17.61152       27.67833        0.417
        6.03357       20.62694       22.26261       -0.834
        6.24053       20.77902       21.34051        0.417
        6.23858       21.45619       22.69452        0.417
       13.43997        4.13444       12.38488       -0.834
       12.67438        4.28391       12.93964        0.417
       13.08412        4.06193       11.49925        0.417
        9.93587       18.14371       18.92952       -0.834
        9.68996       18.25312       18.01094        0.417
       10.89160       18.19678       18.93006        0.417
       22.60153       22.81430       20.96006       -0.834
       22.67774       22.30818       21.76893        0.417
       23.12846       22.33075       20.32386        0.417
        8.50534        4.47562       19.09286       -0.834
        8.46409        3.55060       19.33548        0.417
        9.37281        4.58294       18.70272        0.417
        9.41845       29.58599       17.88720       -0.834
        8.86979       29.15636       18.54341        0.417
        8.84571       29.69189       17.12760        0.417
       10.43130       27.09663        9.37041       -0.834
       10.11071       27.19001       10.26748        0.417
        9.74547       26.60312        8.92061        0.417
       20.16389       14.75235        7.02136       -0.834
       19.22949       14.95922        7.00311        0.417
       20.47041       15.10025        7.85876        0.417
       17.37890       23.44529        8.60156       -0.834
       16.72886       24.11521        8.81343        0.417
       18.13408       23.66227        9.14824        0.417
       14.42998        6.11569       14.02243       -0.834
       14.21824        7.03905       13.88532        0.417
       13.87998        5.64751       13.39432        0.417
       14.61685       15.54558        7.40666       -0.834
       14.52383       16.31347        7.97051        0.417
       14.78700       15.90606        6.53641        0.417
        8.91679       11.70282       24.14805       -0.834
        8.54070       12.42531       23.64525        0.417
        8.28772       10.98824       24.04866        0.417
       21.62299       11.98654       27.18776       -0.834
       20.78989       11.52349       27.09968        0.417
       22.20784       11.54794       26.56984        0.417
        4.14871       21.30941       16.14728       -0.834
        3.87372       21.80786       16.91680        0.417
        3.72492       21.75095       15.41130        0.417
       22.13708        8.54647        7.84980       -0.834
       21.19251        8.68229        7.77511        0.417
       22.51749        9.14955        7.21119        0.417
        5.02256       25.71537       19.12817       -0.834
        4.78102       26.50964       19.60466        0.417
        5.31492       25.10759       19.80741        0.417
       27.71397       24.38253       15.34160       -0.834
       28.30806       23.88601       14.77879        0.417
       27.67226       25.25043       14.94006        0.417
        9.02584        7.35064       10.90436       -0.834
        8.89994        8.29179       10.78344        0.417
        9.76252        7.13179       10.33371        0.417
       24.31965       12.68716       18.67992       -0.834
       24.28197       13.37456       19.34495        0.417
       24.92524       13.02468       18.01994        0.417
       26.34229       19.67256        8.30588       -0.834
       26.90184       19.04829        7.84391        0.417
       25.75892       20.01777        7.63005        0.417
       27.00794        9.14288       20.27464       -0.834
       26.25279        8.55680       20.22473        0.417
       27.49147        8.84616       21.04560        0.417
       28.85428       15.20208       12.65877       -0.834
       29.05619       14.54044       11.99718        0.417
       29.61627       15.78139       12.65919        0.417
       19.68399        1.91606       15.09356       -0.834
       20.24112        2.68762       15.19613        0.417
       19.42301        1.92919       14.17272        0.417
       24.27416       14.71178        7.76293       -0.834
       23.92329       13.82772        7.65542        0.417
       25.03350       14.60067        8.33503        0.417
        7.56790       14.91647       17.94364       -0.834
        7.58075       13.98710       18.17244        0.417
        7.54067       14.92772       16.98689        0.417
       27.52984       17.29175       11.66696       -0.834
       27.57477       16.68174       12.40323        0.417
       26.60940       17.28361       11.40439        0.417
       24.93739       14.15690       20.74809       -0.834
       24.60911       14.91080       21.23808        0.417
       25.86360       14.34995       20.60279        0.417
        5.11543       10.83051       17.43475       -0.834
        4.85041       11.74995       17.40981        0.417
        6.06879       10.85322       17.35212        0.417
       17.06940       12.20490       31.36399       -0.834
       17.20239       12.23726       30.41665        0.417
       16.11940       12.24403       31.47444        0.417
       22.25654       18.36072       21.81924       -0.834
       21.72041       17.99446       22.52256        0.417
       21.65265       18.45810       21.08299        0.417
       21.17935       17.84299       27.24516       -0.834
       20.36955       17.74057       27.74513        0.417
       21.45842       16.94749       27.05428        0.417
        3.42098        9.44949       19.30484       -0.834
        3.76327        9.20948       20.16592        0.417
        4.05013       10.08603       18.96540        0.417
       13.61433       25.80648       17.53742       -0.834
       13.50323       26.06947       16.62379        0.417
       13.54943       24.85161       17.52188        0.417
       27.98677       24.22746       11.67468       -0.834
       28.23471       23.68228       12.42137        0.417
       28.81942       24.52101       11.30488        0.417
       24.59654       25.55424       26.66187       -0.834
       23.85659       25.71708       26.07690        0.417
       25.35943       25.53455       26.08409        0.417
        5.07082       14.74219        9.17268       -0.834
        5.09084       15.69413        9.07451        0.417
        5.75859       14.42599        8.58682        0.417
        3.22883       20.17043       21.09835       -0.834
        3.09699       19.50998       20.41816        0.417
        4.17826       20.21026       21.21337        0.417
       16.19116        9.85441       23.64239       -0.834
       17.09221        9.65334       23.38958        0.417
       15.93273        9.12708       24.20846        0.417
       11.24121       21.41330        3.39854       -0.834
       11.56413       21.96108        2.68307        0.417
       11.03017       22.03183        4.09791        0.417
       22.65249       16.03673        9.97976       -0.834
       23.36159       16.53793       10.38253        0.417
       22.96236       15.85258        9.09303        0.417
       12.07784       23.04735       24.53643       -0.834
       12.18826       23.17010       23.59358        0.417
       11.23463       23.45486       24.73436        0.417
       24.22684       11.47701       10.67696       -0.834
       24.09096       10.94796       11.46302        0.417
       23.82566       12.32117       10.88354        0.417
       18.62564       21.44439       12.04958       -0.834
       17.90215       21.36139       12.67079        0.417
       18.97468       20.55687       11.96771        0.417
       22.10567       15.06922       26.99648       -0.834
       21.77307       14.24573       27.35351        0.417
       22.50995       14.82406       26.16421        0.417
        9.29193        8.73552       22.38756       -0.834
        9.62664        8.26009       23.14794        0.417
        8.52442        9.20374       22.71607        0.417
       12.03200       20.46530       25.40400       -0.834
       12.18187       21.40369       25.28916        0.417
       12.71798       20.04725       24.88353        0.417
        9.48461       14.69887       24.23995       -0.834
        8.64812       14.23724       24.18153        0.417
        9.83016       14.68330       23.34743        0.417
        3.62732       22.87237       13.98031       -0.834
        3.12452       22.34158       13.36252        0.417
        4.42412       23.10511       13.50368        0.417
       19.36706       26.75044        6.21129       -0.834
       19.68070       26.70014        7.11425        0.417
       18.80411       25.98298        6.10968        0.417
       23.02329        6.48155       15.13628       -0.834
       22.46298        6.82169       15.83384        0.417
       23.29655        5.61851       15.44730        0.417
        8.91358        6.61091       13.52843       -0.834
        8.16059        6.08654       13.80097        0.417
        8.73344        6.83289       12.61492        0.417
       12.04698       10.87956       13.74970       -0.834
       11.51229       11.47247       13.22169        0.417
       11.43844       10.19853       14.03625        0.417
       17.32198        7.12848        5.06130       -0.834
       17.94194        7.85041        4.95794        0.417
       17.82503        6.44071        5.49735        0.417
       23.01470       23.76782       28.14260       -0.834
       23.48074       24.10566       27.37781        0.417
       23.44858       24.18024       28.88953        0.417
       10.38540       12.41240       12.23586       -0.834
       10.29464       13.29605       11.87931        0.417
       10.68484       11.88454       11.49563        0.417
        7.04870       24.84069       20.83109       -0.834
        7.53366       25.63483       21.05556        0.417
        7.44197       24.15771       21.37433        0.417
       13.53701       20.30342        6.28904       -0.834
       13.80782       19.60793        5.68972        0.417
       14.22170       20.96773        6.21082        0.417
       16.22646       27.17021       17.44351       -0.834
       15.45772       27.12409       18.01194        0.417
       16.23126       26.33384       16.97801        0.417
       27.94063       18.06904       26.05095       -0.834
       27.83417       18.46357       26.91654        0.417