%Nproc=32
%Mem=120Gb
%chk=temp.chk
#p cam-b3lyp/6-31+G(d,p) nosymm charge Freq 

Calculation for S0 with freq for abs spect

0  1
 C         17.83199       16.16336       17.38611
 C         16.83424       17.11311       15.41141
 C         15.60505       17.28016       15.95501
 C         15.42948       16.94741       17.32594
 N         16.58097       16.46748       17.87997
 H         16.90438       17.31322       14.37389
 H         14.65619       17.55362       15.38240
 O         14.37286       17.01116       17.88475
 O         18.72997       15.64644       18.01934
 N         17.95058       16.63000       16.06563
 H         18.82721       16.49166       15.56969
 H         16.52431       16.10920       18.82618
 O         14.25094       15.82885       12.34825
 H         13.74323       16.07243       11.57421
 H         14.76462       16.60993       12.55389
 O         16.03555       13.49866       20.01172
 H         15.92266       14.39130       20.33833
 H         15.32952       13.00108       20.42424
 O         14.75697       19.77441       18.55147
 H         14.68841       18.85188       18.79739
 H         13.86115       20.10616       18.61213
 O         17.59696       13.48008       13.57992
 H         18.31912       13.47430       12.95169
 H         17.44880       14.40711       13.76673
 O         16.47374       20.92369       14.20391
 H         17.21388       21.51774       14.07929
 H         16.67074       20.46261       15.01929
 O         18.39422       19.54338       19.51480
 H         17.86737       20.33647       19.61316
 H         18.02137       18.92779       20.14589
 O         20.62600       17.62012       17.72160
 H         20.91845       17.80529       18.61402
 H         19.96438       16.93586       17.82298
 O         11.78192       16.91454       17.41920
 H         12.73013       16.81773       17.50732
 H         11.47787       17.11513       18.30438
 O         14.10759       12.50240       16.39766
 H         14.51638       12.67617       15.54979
 H         13.20334       12.27124       16.18525
 O         20.18532       13.28749       18.65397
 H         21.03213       13.61410       18.95806
 H         19.73460       14.06328       18.32045
 O         17.22174       20.13427       16.93972
 H         16.36729       20.35663       17.30946
 H         17.75760       19.90022       17.69755
 O         13.47347       14.46106       18.75837
 H         13.72452       13.80329       18.10988
 H         13.85870       15.27566       18.43549
 O         15.98544       18.06890       12.14625
 H         16.69056       18.64435       12.44266
 H         16.40004       17.49229       11.50449
 O         14.91971       13.38570       13.81777
 H         14.70912       14.06772       13.18002
 H         15.82933       13.15421       13.63004
 O         18.59820       16.02919       13.04351
 H         18.26485       16.07313       12.14731
 H         19.14021       16.81263       13.13664
 O         20.60393       17.91077       15.13507
 H         20.63443       18.22406       16.03901
 H         20.59902       18.70769       14.60491
 O         15.19837       16.48500       21.29028
 H         14.54516       17.17302       21.16310
 H         15.02404       16.14805       22.16909
 
       27.51452       13.24855       10.90915       -0.834
       27.67235       14.10884       10.52028        0.417
       28.21788       12.69739       10.56602        0.417
       14.29897        9.92654        4.08249       -0.834
       14.09886        9.05708        3.73577        0.417
       14.36175        9.79882        5.02906        0.417
       27.18731       17.90323       25.71927       -0.834
       26.41196       17.42097       25.43206        0.417
       26.94845       18.82446       25.61704        0.417
       18.92994       21.57506       11.24340       -0.834
       18.92454       22.45937       11.60974        0.417
       18.00912       21.38322       11.06586        0.417
       17.06492       10.76672       10.32107       -0.834
       16.28413       11.31977       10.29416        0.417
       17.10737       10.45529       11.22519        0.417
       10.64591        8.96738       27.67592       -0.834
       11.10131        8.60036       26.91821        0.417
       10.94462        9.87578       27.71862        0.417
        2.87585       19.54672       11.43075       -0.834
        2.72029       19.02503       12.21807        0.417
        3.39354       18.97585       10.86301        0.417
       10.65622        9.49415       17.41783       -0.834
       10.80607       10.29537       17.91965        0.417
        9.73482        9.53968       17.16252        0.417
        8.44901       26.27578       23.88770       -0.834
        8.09268       27.16413       23.89701        0.417
        7.93626       25.81850       23.22120        0.417
       10.27578       28.14050        9.81214       -0.834
       10.66311       27.84969        8.98653        0.417
        9.57827       27.50839        9.98579        0.417
       14.22194       24.98811       12.16857       -0.834
       15.13861       25.17813       12.36816        0.417
       13.78987       25.84200       12.18909        0.417
       18.54391       29.80158       15.48786       -0.834
       18.97938       29.05128       15.89239        0.417
       18.03174       30.19223       16.19586        0.417
       13.77600        9.98525       23.21773       -0.834
       14.52746        9.53114       23.59896        0.417
       13.87495        9.86226       22.27364        0.417
       25.56242       11.49190       10.86837       -0.834
       26.24308       12.16489       10.87056        0.417
       25.56904       11.14097       11.75889        0.417
       17.49094       21.30216        2.81372       -0.834
       17.81211       21.50577        3.69214        0.417
       17.04047       22.09849        2.53234        0.417
        3.85799       22.81622       22.76889       -0.834
        4.18875       21.94274       22.97831        0.417
        4.15049       23.36452       23.49693        0.417
       21.63754       13.71251       11.72118       -0.834
       22.42467       13.81840       12.25545        0.417
       21.65703       14.45356       11.11563        0.417
        6.83587       10.04785       25.11016       -0.834
        6.63489        9.79279       26.01060        0.417
        6.49075       10.93705       25.02990        0.417
       15.36676        9.40689        8.72359       -0.834
       14.75000        9.40770        9.45559        0.417
       16.11084        9.92156        9.03614        0.417
       26.46918        7.59711       20.34521       -0.834
       26.13939        7.25151       21.17469        0.417
       27.31002        7.15736       20.21937        0.417
       17.31865       24.65427        3.63632       -0.834
       18.13320       24.25829        3.94607        0.417
       16.96585       25.10760        4.40199        0.417
       21.25468       29.55305       13.25193       -0.834
       20.79115       30.13792       12.65251        0.417
       22.06915       29.33929       12.79675        0.417
       23.76275       22.15923       12.81159       -0.834
       23.69592       21.25685       13.12381        0.417
       23.04000       22.61616       13.24179        0.417
       20.07266        8.80210       25.82130       -0.834
       20.04232        9.52634       26.44643        0.417
       19.94885        9.21671       24.96748        0.417
       12.14283       28.15376       19.71987       -0.834
       12.13532       29.10827       19.64853        0.417
       12.59140       27.97845       20.54708        0.417
        6.48377        5.97037       15.58967       -0.834
        6.68975        5.14306       15.15451        0.417
        6.33267        5.72964       16.50367        0.417
       30.56078       17.64987       23.88459       -0.834
       30.84986       18.33498       24.48731        0.417
       29.76433       18.00100       23.48633        0.417
       18.26255        5.61821       26.06613       -0.834
       17.34138        5.87039       26.12995        0.417
       18.38323        4.97203       26.76192        0.417
       15.91866       27.48104       18.28849       -0.834
       15.24014       27.18783       18.89666        0.417
       16.04546       26.74061       17.69527        0.417
       16.53705       20.47078       28.23010       -0.834
       16.32581       20.08550       27.37971        0.417
       17.01685       19.78354       28.69240        0.417
       12.58034        2.36000       14.34919       -0.834
       13.02041        2.87736       13.67472        0.417
       12.26973        3.00653       14.98303        0.417
       23.48006       22.34900       16.66393       -0.834
       23.88848       23.20327       16.52376        0.417
       22.69372       22.53995       17.17524        0.417
       20.58240       19.43569       26.27904       -0.834
       19.77217       19.85381       25.98762        0.417
       20.30653       18.57915       26.60534        0.417
       20.56421        5.86211        9.35393       -0.834
       20.69344        5.20174       10.03469        0.417
       21.31962        6.44400        9.43754        0.417
       18.40570       18.81182        6.00543       -0.834
       17.94130       19.11707        6.78479        0.417
       17.71363       18.51479        5.41463        0.417
       14.68389       12.42739       22.13048       -0.834
       13.96682       13.06056       22.09689        0.417
       14.25793       11.59249       22.32473        0.417
       19.04700       13.07881        7.34275       -0.834
       18.83197       14.00389        7.46203        0.417
       19.99169       13.06994        7.18876        0.417
       15.07025       22.76322        7.75487       -0.834
       14.36990       22.31932        7.27666        0.417
       14.62370       23.21140        8.47318        0.417
       11.84208        7.01248       17.80301       -0.834
       12.78382        7.15412       17.70663        0.417
       11.46343        7.89125       17.77810        0.417
        6.35890       10.52205       13.64753       -0.834
        5.83153       10.88416       14.35956        0.417
        6.21575        9.57704       13.69949        0.417
        7.55856       17.54667       27.40426       -0.834
        8.44114       17.65251       27.75935        0.417
        7.01054       18.10881       27.95190        0.417
        9.32949        6.79479       21.15879       -0.834
       10.01358        7.18932       21.69972        0.417
        8.62020        7.43754       21.16235        0.417
        7.26218       22.38834       17.54023       -0.834
        7.94525       22.05680       18.12309        0.417
        6.52334       21.79474       17.67434        0.417
        4.74535       22.24323       15.46378       -0.834
        4.38998       21.87691       14.65398        0.417
        5.36085       22.91614       15.17295        0.417
        9.31156       18.84489       29.39152       -0.834
       10.09437       18.36834       29.11523        0.417
        9.11727       18.50204       30.26384        0.417
        9.63589       20.35727       18.59561       -0.834
       10.31944       21.01040       18.44585        0.417
        9.77669       19.70159       17.91260        0.417
       10.92884       23.94504       16.48879       -0.834
       10.14898       23.95538       15.93386        0.417
       10.96234       24.82156       16.87198        0.417
       23.96757        6.88534       12.71984       -0.834
       23.22417        7.48215       12.63373        0.417
       23.62516        6.03443       12.44607        0.417
       11.54140       18.79806       25.96405       -0.834
       11.28674       17.87822       25.89182        0.417
       12.03161       18.84763       26.78470        0.417
        8.32029       14.03371       15.37591       -0.834
        8.19091       13.51705       14.58057        0.417
        8.81052       14.80280       15.08538        0.417
        7.38668       22.07813        9.49563       -0.834
        7.84603       22.57960       10.16924        0.417
        6.86184       21.44422        9.98443        0.417
       20.23080        8.79949       22.80403       -0.834
       19.50275        9.10295       22.26173        0.417
       19.90280        8.00360       23.22260        0.417
       11.03660       27.74351       14.34184       -0.834
       10.26313       28.28961       14.48243        0.417
       10.70164       26.84685       14.34808        0.417
       11.40552       12.01591        3.52681       -0.834
       11.28412       11.13379        3.87801        0.417
       11.06951       12.59494        4.21095        0.417
       30.80812       17.08620       14.55470       -0.834
       30.51125       16.39334       13.96474        0.417
       30.01379       17.37616       15.00325        0.417
        9.31340       29.45588       18.14767       -0.834
       10.21943       29.64209       18.39395        0.417
        9.11058       28.62943       18.58594        0.417
       22.51458       18.75300       10.41311       -0.834
       22.90085       19.61763       10.27368        0.417
       23.21119       18.13879       10.18142        0.417
       11.99163       14.31763       14.00559       -0.834
       12.85635       14.14492       13.63320        0.417
       11.90136       13.67619       14.71032        0.417
       26.18349       18.55683       28.30678       -0.834
       26.64096       18.15905       27.56605        0.417
       25.28510       18.23433       28.23529        0.417
       18.19405       13.39120       27.62126       -0.834
       18.04682       12.44696       27.67579        0.417
       19.12018       13.50248       27.83601        0.417
       20.20784       16.64110       26.95297       -0.834
       20.01410       15.93745       27.57229        0.417
       21.16159       16.72034       26.97042        0.417
       20.13955        3.36818       21.75098       -0.834
       19.47694        3.72891       21.16187        0.417
       20.90880        3.92118       21.61432        0.417
        5.75254       18.34477       25.04216       -0.834
        5.44428       17.65361       24.45610        0.417
        6.42106       17.92198       25.58116        0.417
       26.20415       22.11236       23.37308       -0.834
       26.91345       22.42735       22.81281        0.417
       25.90483       22.89127       23.84206        0.417
        6.29253       18.89922       12.61999       -0.834
        5.73316       18.99312       13.39104        0.417
        7.00771       19.51856       12.76548        0.417
       14.04922       27.46252       26.48682       -0.834
       13.24630       27.81069       26.87455        0.417
       13.78161       26.63828       26.08033        0.417
       14.74116       30.10892        9.72554       -0.834
       14.32441       30.79528        9.20452        0.417
       14.29562       30.14620       10.57190        0.417
       14.52499       24.25629       28.31718       -0.834
       14.61518       24.95274       28.96761        0.417
       15.42462       24.03308       28.07827        0.417
       14.90345       14.79478        4.58458       -0.834
       15.38325       14.13696        5.08786        0.417
       14.26564       14.29155        4.07843        0.417
       23.41833       17.94250       22.54855       -0.834
       24.18504       18.11499       22.00208        0.417
       22.77727       18.59930       22.27682        0.417
       13.87369       23.16479       19.02089       -0.834
       13.88758       23.94467       18.46608        0.417
       14.51591       23.34685       19.70692        0.417
       27.70551       25.59307       15.65718       -0.834
       28.47405       25.30693       16.15082        0.417
       27.92251       26.47928       15.36772        0.417
       12.96484       22.67812       14.00199       -0.834
       13.27860       23.25759       13.30773        0.417
       13.43686       21.85739       13.86117        0.417
       20.74949       16.94981       20.36576       -0.834
       21.24638       16.97330       21.18355        0.417
       20.44403       16.04531       20.29645        0.417
       15.09226       16.66276        2.19795       -0.834
       14.96701       15.88400        2.74024        0.417
       14.20531       16.94393        1.97326        0.417
       30.22893       12.68376       20.96618       -0.834
       31.16373       12.62723       21.16414        0.417
       30.12483       13.53468       20.54034        0.417
       15.40831        3.37109       20.71380       -0.834
       14.64055        3.94227       20.69063        0.417
       15.40260        2.99699       21.59484        0.417
       22.56656       23.87705       10.21158       -0.834
       21.90636       23.51268        9.62200        0.417
       22.84265       24.69050        9.78932        0.417
       26.01007       24.73945       24.26875       -0.834
       26.22764       24.97977       25.16939        0.417
       26.23727       25.51279       23.75246        0.417
       23.22649       18.97616       27.80997       -0.834
       22.35564       19.35585       27.92699        0.417
       23.41311       19.08654       26.87765        0.417
        7.44021       15.03429       26.32715       -0.834
        7.49641       15.98984       26.32760        0.417
        6.58076       14.84427       26.70326        0.417
       27.21350       23.11332       14.16831       -0.834
       27.35009       23.98248       14.54533        0.417
       26.54417       23.24545       13.49692        0.417
       26.06309       20.90099       17.96652       -0.834
       25.14669       20.78618       18.21803        0.417
       26.49869       20.10768       18.27818        0.417
       18.19058       24.53054       29.72578       -0.834
       18.91090       25.02359       30.11855        0.417
       18.60782       23.98844       29.05625        0.417
       17.20818       15.77419       10.54167       -0.834
       16.51555       15.60491        9.90305        0.417
       17.68147       14.94483       10.60791        0.417
       12.20816       23.23503       28.51565       -0.834
       11.90698       23.34455       29.41760        0.417
       13.10037       23.58174       28.51679        0.417
        5.61813       16.19110       22.88144       -0.834
        5.90139       15.81779       22.04680        0.417
        4.70626       16.44251       22.73475        0.417
       10.45026       13.89778       11.54955       -0.834
       11.09543       13.98059       12.25178        0.417
        9.60695       14.03536       11.98099        0.417
       25.06020        5.45150        9.68136       -0.834
       24.86675        6.37757        9.53577        0.417
       24.24642        5.08840       10.03087        0.417
        6.88645       17.38005       16.58028       -0.834
        6.65199       17.66466       17.46361        0.417
        7.76175       17.73983       16.43664        0.417
       16.52491       30.37415       17.39028       -0.834
       16.44130       29.47579       17.70995        0.417
       16.18598       30.91517       18.10348        0.417
       10.83965        7.83155       23.16878       -0.834
       11.31038        8.16495       23.93263        0.417
        9.91655        7.98585       23.36957        0.417
       16.60769       21.59128       19.60209       -0.834
       15.81111       21.26743       19.18162        0.417
       16.29951       22.02685       20.39678        0.417
       19.38084       23.29526        4.52493       -0.834
       20.01885       23.81977        5.00872        0.417
       19.05598       22.66205        5.16504        0.417
       23.74729       16.18465        7.28589       -0.834
       23.46238       15.83665        6.44093        0.417
       24.14994       17.02705        7.07505        0.417
        4.19036       19.32684       14.29282       -0.834
        3.27244       19.06913       14.20778        0.417
        4.39895       19.17129       15.21397        0.417
        3.98912       18.96195       17.26331       -0.834
        4.76251       18.79020       17.80051        0.417
        3.59144       18.10110       17.13301        0.417
       17.65138       20.23583        8.42688       -0.834
       16.84668       20.28037        8.94332        0.417
       18.34272       20.08763        9.07210        0.417
       16.29285       17.48055       31.43196       -0.834
       16.81852       17.46353       32.23172        0.417
       16.34921       18.38610       31.12695        0.417
       18.77298       24.44556       11.90527       -0.834
       17.86492       24.71852       11.77429        0.417
       19.27736       24.99326       11.30373        0.417
       13.05987       13.40427       27.99839       -0.834
       13.40529       13.84884       28.77251        0.417
       12.54244       12.67925       28.34889        0.417
       22.13972       13.01804       21.54519       -0.834
       22.36662       13.82836       22.00139        0.417
       21.96970       12.38794       22.24540        0.417
        9.18542       13.33699       27.26288       -0.834
        8.49461       13.92251       26.95276        0.417
        9.22007       12.63906       26.60872        0.417
       16.73982       15.46158       28.29046       -0.834
       17.05204       14.60374       28.00259        0.417
       17.30115       15.68446       29.03306        0.417
       13.72588        7.12839       22.75101       -0.834
       13.83555        6.66420       21.92111        0.417
       12.80617        7.39359       22.75793        0.417
       11.12097       24.81136       13.29430       -0.834
       10.36206       24.53976       12.77803        0.417
       11.13911       24.20267       14.03281        0.417
       20.25953       10.67625       10.32552       -0.834
       20.94165       10.38381        9.72102        0.417
       19.69231        9.91299       10.43472        0.417
       14.31507       10.86578       13.47492       -0.834
       15.14252       10.71571       13.93213        0.417
       14.21356       11.81757       13.46862        0.417
       13.64149       17.16646        5.81256       -0.834
       13.95038       16.45278        5.25446        0.417
       13.55704       17.91431        5.22110        0.417
        9.24890       25.78432       26.65845       -0.834
        9.31243       24.83222       26.73398        0.417
        8.93607       25.93395       25.76627        0.417
       17.95689       17.91229       24.82356       -0.834
       17.87522       17.59705       23.92346        0.417
       17.90665       17.12135       25.36034        0.417
       19.70509       18.85091        9.67133       -0.834
       19.48514       18.25188        8.95791        0.417
       20.65985       18.81479        9.72930        0.417
       14.41580        9.10847       26.75014       -0.834
       15.21132        8.61011       26.56303        0.417
       14.43131        9.23816       27.69838        0.417
       26.98737       10.12581       21.03502       -0.834
       27.36786       10.63414       20.31873        0.417
       26.90452        9.23963       20.68282        0.417
       30.50070       14.93544       19.58287       -0.834
       30.69972       15.80835       19.92147        0.417
       31.09399       14.82522       18.83985        0.417
       22.39902        8.66042        6.21151       -0.834
       22.57018        9.46235        6.70531        0.417
       21.51482        8.40234        6.47193        0.417
       27.27867       18.40923       18.38189       -0.834
       26.82009       17.82197       18.98274        0.417
       28.20627       18.21816       18.52075        0.417
       18.46466       11.95416       20.13500       -0.834
       17.84002       12.64796       20.34643        0.417
       19.12681       12.38413       19.59378        0.417
       14.85796       27.71527        5.78141       -0.834
       14.64614       27.87073        6.70184        0.417
       15.38357       26.91532        5.78790        0.417
       27.51701       10.20338        8.89304       -0.834
       27.90291        9.76421        9.65095        0.417
       26.61568       10.38901        9.15644        0.417
       13.63501       24.60302       16.55378       -0.834
       13.21477       25.45652       16.44803        0.417
       12.95185       23.97010       16.33257        0.417
       14.77264       20.60097       21.89487       -0.834
       14.26140       20.43296       22.68647        0.417
       14.13597       20.54743       21.18212        0.417
        9.82717       25.04729        8.19562       -0.834
        8.90416       25.29930        8.16779        0.417
        9.82460       24.16817        8.57427        0.417
       13.45109        4.50600       12.87078       -0.834
       12.67195        5.04576       12.73730        0.417
       14.17376        5.04337       12.54644        0.417
       15.41900       29.43219       23.58445       -0.834
       15.92080       29.00943       24.28137        0.417
       15.88188       30.25372       23.41990        0.417
       11.57117        9.52992       10.10533       -0.834
       12.16396        9.07456       10.70322        0.417
       10.69502        9.29113       10.40792        0.417
       25.58437       18.57095        6.66713       -0.834
       26.40052       18.07464        6.72852        0.417
       25.45281       18.70128        5.72801        0.417
       19.97699       13.78085        4.36858       -0.834
       19.83408       12.99935        3.83468        0.417
       19.30804       13.73065        5.05138        0.417
        9.28649       20.01515       25.23418       -0.834
       10.13525       19.60566       25.40198        0.417
        8.86880       20.06275       26.09412        0.417
       19.80173        5.80896       16.58749       -0.834
       20.02483        6.48571       17.22661        0.417
       19.97948        4.98411       17.03942        0.417
       25.15036       26.11880       10.54671       -0.834
       24.63155       26.26811        9.75629        0.417
       25.92754       26.66535       10.43046        0.417
       13.27393       29.32231       12.79301       -0.834
       13.08847       28.62906       12.15957        0.417
       13.84262       28.90834       13.44220        0.417
       12.55668       24.37216        7.09668       -0.834
       11.60722       24.49362        7.09557        0.417
       12.72510       23.80423        7.84856        0.417
       12.34365       14.03731       22.67617       -0.834
       11.56127       14.53141       22.43128        0.417
       12.17123       13.74255       23.57038        0.417
       23.75482        4.54158       18.68719       -0.834
       24.05027        5.43973       18.53796        0.417
       23.46083        4.23973       17.82772        0.417
       28.32359       14.78229       17.85390       -0.834
       27.92520       13.96736       18.15952        0.417
       29.10326       14.88750       18.39914        0.417
       17.90240        3.27496       19.85577       -0.834
       17.03812        3.18012       20.25610        0.417
       17.94572        2.57093       19.20870        0.417
       10.88328       11.59212       28.83378       -0.834
       10.22761       12.06285       28.31926        0.417
       10.41421       11.30846       29.61847        0.417
       18.92342        6.68047       23.62267       -0.834
       18.32398        6.07982       23.17981        0.417
       18.90472        6.40568       24.53939        0.417
       18.19554       24.79224       26.23687       -0.834
       18.77952       24.17550       26.67827        0.417
       18.41560       24.70903       25.30903        0.417
       13.85119        3.30167       17.15241       -0.834
       14.55875        3.21112       16.51414        0.417
       14.15510        2.81457       17.91831        0.417
       20.30452       24.70932       17.14127       -0.834
       19.49531       24.21052       17.25361        0.417
       20.44747       25.12900       17.98961        0.417
       26.51248       10.34501       13.21579       -0.834
       25.91863        9.68813       13.57921        0.417
       26.93469       10.73617       13.98062        0.417
       21.25773       15.27029       24.21252       -0.834
       21.44726       15.16903       25.14529        0.417
       21.24533       16.21697       24.07153        0.417
       14.26076       27.23561        9.16726       -0.834
       14.21114       28.15924        9.41361        0.417
       13.56552       26.81468        9.67291        0.417
       16.23842       17.99091        4.46600       -0.834
       15.76997       17.31300        3.97895        0.417
       15.59472       18.68932        4.58462        0.417
        4.41280       22.19091       10.60495       -0.834
        4.08223       22.88352       10.03291        0.417
        3.75530       21.49767       10.54713        0.417
        7.73260        8.92366       21.85445       -0.834
        6.93402        8.84915       22.37690        0.417
        7.95312        9.85462       21.88461        0.417
       10.63701       23.16834       10.14607       -0.834
       10.03735       23.64520       10.71986        0.417
       10.49674       22.24708       10.36477        0.417
       17.22941        2.17645       13.07411       -0.834
       16.93412        1.35456       13.46595        0.417
       18.12022        1.99351       12.77544        0.417
       14.07635       12.37775        3.27895       -0.834
       14.35267       11.51740        3.59464        0.417