%Nproc=32
%Mem=120Gb
%chk=temp.chk
#p cam-b3lyp/6-31+G(d,p) nosymm charge Freq 

Calculation for S0 with freq for abs spect

0  1
 C         16.24207       17.53577       15.47476
 C         16.68758       17.40766       17.82372
 C         17.00722       16.14234       17.69492
 C         17.01567       15.39270       16.42347
 N         16.57215       16.19762       15.43055
 H         16.69776       17.99169       18.77786
 H         17.41830       15.61886       18.55302
 O         17.25680       14.23514       16.17706
 O         15.79250       18.14821       14.46350
 N         16.25915       18.10387       16.71682
 H         15.81252       18.97566       16.85356
 H         16.51871       15.93528       14.43294
 O         13.76793       19.58401       13.20350
 H         13.72163       20.08813       14.01588
 H         14.63677       19.18263       13.21934
 O         16.51066       21.42202       15.49222
 H         16.53397       22.07855       14.79604
 H         16.24606       21.90905       16.27261
 O         19.89872       13.70400       17.24263
 H         19.05632       13.77582       16.79383
 H         19.97445       14.51686       17.74239
 O         17.59544       16.17294       12.73125
 H         17.60854       15.26833       12.41874
 H         17.10376       16.65055       12.06315
 O         14.07028       15.84873       13.65537
 H         13.60139       16.50018       14.17690
 H         14.49388       16.35559       12.96263
 O         15.68189       13.62575       19.55210
 H         16.34407       13.60578       20.24301
 H         16.15231       13.36249       18.76114
 O         13.57379       19.77982       18.10280
 H         13.65857       19.64171       19.04618
 H         13.26169       18.94055       17.76448
 O         20.46608       14.38411       14.55775
 H         20.66537       15.20994       14.99880
 H         20.37553       13.74859       15.26779
 O         16.20085       18.06712       21.47314
 H         16.48092       18.91910       21.13861
 H         15.34178       17.92396       21.07598
 O         21.27209       16.76049       16.05663
 H         22.04732       16.81059       15.49740
 H         20.60752       17.26884       15.59169
 O         18.04517       20.30705       17.58865
 H         18.69625       20.98413       17.77272
 H         17.55190       20.64528       16.84131
 O         13.07006       17.43176       16.41359
 H         12.14907       17.69025       16.37909
 H         13.05039       16.47486       16.42733
 O         16.29572       20.51186       19.66064
 H         15.99294       21.40802       19.80706
 H         16.97106       20.59372       18.98725
 O         12.68497       14.77703       16.74954
 H         13.41034       14.25003       16.41438
 H         11.93394       14.18361       16.74257
 O         20.49661       16.21563       18.45871
 H         20.28249       17.06194       18.85132
 H         20.65468       16.41253       17.53541
 O         19.23239       17.55402       14.52996
 H         18.84279       18.42579       14.59681
 H         18.65888       17.08041       13.92746
 O         14.24453       13.46052       15.06479
 H         14.98977       13.04533       14.63068
 H         14.11189       14.27784       14.58454
 O         18.62138       20.36786       14.11679
 H         19.25097       21.08744       14.07163
 H         17.83171       20.76274       14.48655
 O         13.47157       15.05907       19.64946
 H         12.96869       15.23989       18.85532
 H         14.36058       14.89031       19.33734
 O         20.07060       18.78769       19.30609
 H         20.63127       19.50454       19.00942
 H         19.17937       19.12028       19.19974
 O         17.47602       11.94435       18.11520
 H         17.56232       12.40903       17.28281
 H         17.03845       11.12395       17.88781
 
       23.34505       24.89839       15.37847       -0.834
       23.61751       23.98901       15.25597        0.417
       23.90782       25.22504       16.08048        0.417
       16.20424        9.77559       16.97518       -0.834
       15.62269        9.41804       16.30422        0.417
       15.73534        9.63663       17.79802        0.417
       21.81689       26.44102       17.92114       -0.834
       22.39780       26.99470       17.39940        0.417
       21.85387       26.81636       18.80091        0.417
       26.13782       25.70572       19.98289       -0.834
       26.75361       26.41622       20.16242        0.417
       25.53964       25.71204       20.73014        0.417
        7.60709       29.46767       15.18568       -0.834
        8.04304       28.62079       15.09096        0.417
        6.77445       29.36176       14.72555        0.417
       12.64149       20.43981       24.45791       -0.834
       11.83152       19.95946       24.62947        0.417
       13.33748       19.80468       24.62652        0.417
       22.49977       23.27292       22.60289       -0.834
       21.67512       23.75472       22.66660        0.417
       22.28853       22.39322       22.91552        0.417
       28.19126       19.96528       19.00407       -0.834
       27.43874       20.26113       18.49181        0.417
       28.16739       19.01078       18.93631        0.417
       21.42776        8.60472        8.10580       -0.834
       20.78047        8.28330        8.73344        0.417
       21.77393        7.81408        7.69191        0.417
       19.50053       12.43897       28.18765       -0.834
       20.02803       11.81930       28.69158        0.417
       19.71143       13.29408       28.56248        0.417
       28.39779       13.20348       16.41701       -0.834
       29.31693       13.46891       16.38600        0.417
       28.20883       12.88912       15.53287        0.417
       15.31443       13.23171       25.77464       -0.834
       15.51856       12.97071       26.67266        0.417
       15.83299       14.02336       25.63104        0.417
        9.14625       24.93803       20.49630       -0.834
        9.88373       24.79733       21.09006        0.417
        9.04122       25.88895       20.46520        0.417
       27.95910       14.10482       11.56285       -0.834
       27.06403       14.43100       11.65609        0.417
       28.02028       13.82996       10.64800        0.417
       11.68759        7.65465        8.66166       -0.834
       12.31875        6.94015        8.74746        0.417
       12.10643        8.39820        9.09517        0.417
       15.11015        8.13978       10.54195       -0.834
       14.76830        8.36191       11.40800        0.417
       15.16276        7.18403       10.54261        0.417
       14.13749       31.70865       17.70152       -0.834
       14.25016       31.01810       18.35473        0.417
       13.26727       32.06620       17.87794        0.417
       17.01405       17.71749       27.79431       -0.834
       17.51657       18.02512       27.03994        0.417
       16.24929       18.29238       27.82382        0.417
       21.87494       21.32545       11.28992       -0.834
       21.43998       22.10550       11.63427        0.417
       21.36715       21.09069       10.51322        0.417
       10.51012       12.82180        6.80267       -0.834
       10.51673       12.77233        7.75857        0.417
       11.37489       13.16259        6.57401        0.417
        3.26043       23.43707       15.20986       -0.834
        3.90838       23.95318       15.68947        0.417
        2.42794       23.64120       15.63592        0.417
       13.84399       17.50865        8.67886       -0.834
       14.18546       18.22236        9.21761        0.417
       14.62390       17.05608        8.35768        0.417
        9.23914       16.28426       20.15737       -0.834
        9.76921       15.66301       20.65662        0.417
        8.97642       16.94488       20.79830        0.417
       24.10604       14.08201       16.42131       -0.834
       24.20449       13.56742       15.62022        0.417
       23.36822       13.67725       16.87739        0.417
       16.19116       16.80086        7.55637       -0.834
       16.60966       16.16344        6.97775        0.417
       16.29031       17.63798        7.10291        0.417
        6.22766       20.76830       23.94990       -0.834
        5.40915       21.10398       24.31540        0.417
        6.56730       21.48934       23.41982        0.417
       24.30333       25.23174        5.60318       -0.834
       24.07364       26.04359        6.05526        0.417
       23.84169       24.54793        6.08850        0.417
       21.37024       16.50527        9.93882       -0.834
       21.50386       16.94525       10.77834        0.417
       20.46330       16.70357        9.70562        0.417
       22.54569       22.23542       26.49084       -0.834
       22.57227       21.95386       25.57637        0.417
       22.25813       21.45981       26.97248        0.417
       13.90518        4.26335       20.80172       -0.834
       14.62859        4.21904       20.17645        0.417
       14.31880        4.14138       21.65628        0.417
       11.43806       12.96971       30.83784       -0.834
       11.24107       12.92745       29.90208        0.417
       10.90335       13.69391       31.16318        0.417
       21.32742       16.51218       21.93552       -0.834
       20.76260       15.82230       21.58735        0.417
       22.20425       16.28256       21.62783        0.417
       13.55327        8.89504       16.37357       -0.834
       13.36166        9.83027       16.30396        0.417
       12.75475        8.51291       16.73767        0.417
       14.84793        6.58970       18.00852       -0.834
       14.10015        6.04226       17.76897        0.417
       14.72593        7.39558       17.50662        0.417
       18.86654       23.14034       18.06119       -0.834
       19.59631       23.41647       18.61565        0.417
       18.13157       23.68497       18.34301        0.417
        9.11039       11.24780        5.19162       -0.834
        9.59230       11.87383        5.73206        0.417
        9.78593       10.67719        4.82517        0.417
        9.19130       15.00757       28.63261       -0.834
        8.45123       15.60025       28.76396        0.417
        9.34058       14.61570       29.49306        0.417
        8.94007        8.61732       10.04982       -0.834
        8.16884        9.07210       10.38836        0.417
        9.66940        8.96897       10.56037        0.417
       31.07716       15.76037       12.60993       -0.834
       30.30863       15.46519       12.12160        0.417
       30.83810       16.62981       12.93100        0.417
       29.48668       16.05187       20.82405       -0.834
       28.96293       15.66269       20.12374        0.417
       30.33321       16.23566       20.41682        0.417
       20.57391       28.50989        7.00700       -0.834
       20.44464       28.13964        6.13382        0.417
       20.31949       27.80757        7.60555        0.417
       18.21356       27.10445       25.06824       -0.834
       19.02948       27.59227       24.95629        0.417
       17.52508       27.74074       24.87494        0.417
       19.69246       11.69726       19.54905       -0.834
       19.66699       12.35114       20.24763        0.417
       18.81874       11.72828       19.15932        0.417
       16.46618       23.72128       28.47445       -0.834
       16.11450       24.41635       27.91822        0.417
       16.01644       22.92874       28.18148        0.417
       19.43888       25.45287       13.57428       -0.834
       19.96747       24.79248       13.12628        0.417
       18.86991       25.80844       12.89158        0.417
       19.49894       26.69476        8.57016       -0.834
       18.64396       26.42513        8.23470        0.417
       19.29670       27.29079        9.29132        0.417
       22.80021       14.71353       20.50967       -0.834
       23.12967       15.14207       19.71971        0.417
       23.29823       15.11115       21.22388        0.417
       30.21356       18.21193       13.45728       -0.834
       29.33918       18.01451       13.12154        0.417
       30.05923       18.57804       14.32813        0.417
       30.06801       15.11422       23.16754       -0.834
       30.98119       15.34896       23.33257        0.417
       29.84411       15.57506       22.35901        0.417
       12.55203       14.61912       11.40037       -0.834
       13.21421       14.74919       10.72153        0.417
       12.98160       14.89388       12.21044        0.417
       23.57632       11.04074       25.09216       -0.834
       23.88332       10.18232       24.80042        0.417
       23.85782       11.09872       26.00519        0.417
       14.76243        5.57113       11.59225       -0.834
       15.39773        4.85900       11.51811        0.417
       14.44467        5.51640       12.49351        0.417
       26.92878        8.46032       15.19443       -0.834
       26.12647        8.69915       15.65863        0.417
       27.22999        7.66314       15.63033        0.417
       15.03730       19.08252       24.21998       -0.834
       14.66759       18.20414       24.30935        0.417
       15.39687       19.10247       23.33311        0.417
       18.40525       25.52100       29.09541       -0.834
       18.93920       25.02768       29.71812        0.417
       17.63509       24.97116       28.95130        0.417
       17.50820       14.70991        6.37572       -0.834
       17.30028       14.21244        5.58481        0.417
       18.01564       14.10294        6.91453        0.417
        8.59208       20.72489       28.04961       -0.834
        7.93316       21.21943       27.56228        0.417
        9.29317       21.35571       28.21320        0.417
       20.54302        9.54368       25.77284       -0.834
       20.96387        8.72523       26.03601        0.417
       20.80607        9.66632       24.86071        0.417
       11.69284        7.68929       17.99073       -0.834
       11.73353        8.60335       18.27195        0.417
       12.11083        7.20113       18.70011        0.417
       13.68948        5.11234       14.00901       -0.834
       13.16768        5.31797       14.78469        0.417
       13.38598        4.24580       13.73841        0.417
       16.51305       10.85021        6.79184       -0.834
       17.01349       10.06489        6.57034        0.417
       16.64986       10.96465        7.73227        0.417
       27.65382       16.15973        7.55272       -0.834
       27.42719       16.24872        6.62700        0.417
       26.84748       16.37946        8.01939        0.417
        8.48859       18.88662        6.86524       -0.834
        7.54171       18.75370        6.90992        0.417
        8.83346       18.41234        7.62178        0.417
       25.95702       25.79697       14.21943       -0.834
       25.25879       25.32361       14.67181        0.417
       26.75028       25.58039       14.70939        0.417
       15.27344       16.82899       11.25409       -0.834
       15.26920       17.63567       10.73885        0.417
       15.26454       16.12794       10.60242        0.417
       20.93563       10.00305       28.74071       -0.834
       20.36576       10.06938       27.97453        0.417
       21.60017        9.36110       28.49068        0.417
        3.94649        9.75393       20.00577       -0.834
        3.94737        9.39543       20.89331        0.417
        4.18774        9.01439       19.44800        0.417
       10.30613       19.38105       18.89973       -0.834
       10.41042       18.86425       18.10081        0.417
        9.42685       19.75318       18.83176        0.417
       18.07281       10.40635       15.21310       -0.834
       17.58779       10.29810       16.03119        0.417
       18.97518       10.17888       15.43720        0.417
       25.89494       19.35167        4.22248       -0.834
       25.09084       19.20364        4.72021        0.417
       25.75174       20.18730        3.77813        0.417
       12.52007        5.52022       16.60897       -0.834
       11.73043        4.98946       16.50408        0.417
       12.21749        6.31713       17.04441        0.417
       28.79335       12.60093        9.12774       -0.834
       27.98608       12.08683        9.14321        0.417
       29.40729       12.09986        9.66463        0.417
       25.48118       14.74936       12.17906       -0.834
       24.85120       14.97059       12.86493        0.417
       24.95159       14.65899       11.38685        0.417
       14.89615       29.99690        9.75085       -0.834
       15.53070       30.71285        9.78226        0.417
       14.50134       30.06411        8.88146        0.417
        9.61115       22.49604       24.63733       -0.834
        9.57767       21.61595       24.26245        0.417
       10.53421       22.74403       24.58548        0.417
       21.22878        4.03028       11.73956       -0.834
       20.59236        4.55172       12.22875        0.417
       21.34507        3.23870       12.26502        0.417
       25.52279       16.81508        9.46067       -0.834
       24.94182       16.05589        9.41225        0.417
       24.94007       17.55184        9.64469        0.417
       19.59611       10.48662        7.49425       -0.834
       20.33672        9.88040        7.47883        0.417
       19.00587       10.16176        6.81431        0.417
       14.17860       23.42136       11.30166       -0.834
       13.84759       22.89516       10.57380        0.417
       13.56624       23.25260       12.01774        0.417
       12.32816       29.70202       18.95354       -0.834
       13.00133       29.08742       18.66141        0.417
       11.63095       29.62151       18.30266        0.417
       12.84249       16.68170       30.55897       -0.834
       13.57062       16.06078       30.53627        0.417
       12.06812       16.13826       30.70474        0.417
       14.30176        7.68733       21.50401       -0.834
       13.94836        7.24255       20.73362        0.417
       13.64651        8.35093       21.71965        0.417
       23.47729       18.02658       24.84246       -0.834
       23.74025       17.28798       25.39161        0.417
       24.18098       18.10965       24.19891        0.417
       19.01664        4.16684       17.09054       -0.834
       18.40851        4.89501       17.21776        0.417
       19.26499        4.22001       16.16765        0.417
       26.90814       12.44359       21.87082       -0.834
       27.53715       12.13252       21.21982        0.417
       27.42661       12.56620       22.66605        0.417
       25.78091       27.78317       22.88709       -0.834
       25.35444       26.98382       22.57823        0.417
       25.60284       27.80224       23.82738        0.417
       11.12786       19.43065        3.55169       -0.834
       11.75241       19.77219        2.91175        0.417
       10.30013       19.85755        3.33067        0.417
       23.41484       16.48853       18.20130       -0.834
       22.50113       16.65843       18.43029        0.417
       23.40638       16.37134       17.25134        0.417
       26.13873       28.40808       13.57597       -0.834
       25.99390       27.52352       13.91183        0.417
       25.34682       28.60790       13.07679        0.417
       26.97734       18.41849       26.20941       -0.834
       26.62067       18.26230       25.33498        0.417
       27.66294       19.07291       26.07558        0.417
       16.30051       23.91583        9.71889       -0.834
       16.45075       23.14881        9.16632        0.417
       15.50119       23.70966       10.20347        0.417
       16.83573       25.02524       18.38218       -0.834
       16.00070       25.49256       18.35834        0.417
       17.09887       24.95705       17.46439        0.417
        7.07039       21.47361       14.64383       -0.834
        6.97132       21.12253       13.75887        0.417
        7.43517       20.74800       15.15044        0.417
       22.57291       14.18542        4.28820       -0.834
       22.29908       14.77262        4.99279        0.417
       22.07766       13.38058        4.44045        0.417
       21.85251       27.76019       20.15450       -0.834
       22.46637       27.47593       20.83171        0.417
       20.99565       27.47597       20.47271        0.417
       10.64764       16.20758       26.48817       -0.834
       10.07568       16.91815       26.19802        0.417
       10.12505       15.72530       27.12887        0.417
       20.48469       28.50855       24.84658       -0.834
       20.89880       27.66174       25.01289        0.417
       21.16992       29.15106       25.03063        0.417
       18.20699        4.08879       23.21015       -0.834
       18.64816        4.03405       24.05785        0.417
       17.36947        3.64581       23.34643        0.417
       12.94686        2.82833       12.84057       -0.834
       13.63761        2.26137       12.49756        0.417
       12.41813        3.05261       12.07482        0.417
        6.07691       13.84276       17.97404       -0.834
        5.79482       13.17717       18.60146        0.417
        6.50318       13.34773       17.27442        0.417
       26.31286       22.99740       11.14261       -0.834
       27.23830       23.23451       11.20230        0.417
       26.28104       22.08245       11.42207        0.417
       15.94267       29.25802       13.77886       -0.834
       15.97230       28.35410       14.09238        0.417
       16.18058       29.78463       14.54195        0.417
       24.44316       22.77571       19.99594       -0.834
       23.79617       22.73287       20.70007        0.417
       25.28725       22.79920       20.44672        0.417
        9.61946        8.37107       15.66670       -0.834
       10.21697        8.72533       16.32526        0.417
       10.19358        8.00794       14.99233        0.417
       13.55952       10.22685       21.37700       -0.834
       13.85269       10.57379       22.21956        0.417
       13.22509       10.99032       20.90636        0.417
       22.81237        7.39193       20.13773       -0.834
       23.64719        7.32998       19.67363        0.417
       22.45494        8.24058       19.87644        0.417
       16.51935       23.34823       13.42253       -0.834
       15.68485       23.18562       12.98276        0.417
       17.17231       23.29800       12.72443        0.417
       16.83554       21.78222        8.43063       -0.834
       17.59834       21.25672        8.67191        0.417
       16.90701       21.88749        7.48192        0.417
       23.07050       11.80784       11.43122       -0.834
       23.55093       11.00516       11.22857        0.417
       22.15871       11.59970       11.22739        0.417
       16.43040       28.08657        7.89132       -0.834
       15.89524       27.59085        7.27157        0.417
       15.99575       27.96403        8.73530        0.417
       23.32898       28.64982       12.62761       -0.834
       22.75347       28.13196       12.06477        0.417
       23.00221       28.49363       13.51363        0.417
        7.28482       26.64556       23.43719       -0.834
        8.22096       26.65678       23.63659        0.417
        7.16004       27.37490       22.82997        0.417
       17.64879       13.90512       21.26768       -0.834
       17.51422       13.06751       21.71100        0.417
       18.58230       13.91759       21.05644        0.417
        6.51087       24.29347       16.05232       -0.834
        6.83212       24.74721       16.83151        0.417
        6.46281       23.37368       16.31293        0.417
       28.86778        8.46990       12.56221       -0.834
       28.25493        9.16030       12.30926        0.417
       28.53979        7.68514       12.12310        0.417
       28.17463        9.43049       19.40663       -0.834
       27.64598        9.51793       18.61347        0.417
       27.53479        9.36707       20.11572        0.417
        8.47109       18.21008       26.92026       -0.834
        8.14734       17.73533       27.68579        0.417
        8.60402       19.10540       27.23165        0.417
       23.80475       18.99738       10.03707       -0.834
       23.03036       19.45827        9.71448        0.417
       23.66396       18.92304       10.98094        0.417
        4.32319       10.64137       15.90032       -0.834
        4.60142        9.87685       15.39601        0.417
        4.35572       11.36581       15.27554        0.417
       21.65963        7.79737       14.13507       -0.834
       20.78425        7.85216       14.51841        0.417
       21.52123        7.39607       13.27714        0.417
        4.53989       12.53943       22.44835       -0.834
        5.12975       11.84563       22.74321        0.417
        3.85176       12.56801       23.11311        0.417
        9.82979        4.50891       16.35564       -0.834
        9.55816        3.69094       15.93925        0.417
        9.08094        5.09475       16.24498        0.417
       28.38218       25.44083       15.74706       -0.834
       28.02081       24.61865       16.07820        0.417
       28.50319       25.98143       16.52767        0.417
       11.26735       21.91360       19.18826       -0.834
       11.10062       20.99872       18.96151        0.417
       11.71544       21.87362       20.03316        0.417
       22.12182       16.52293        2.86865       -0.834
       22.31737       15.72387        3.35796        0.417
       21.93142       16.22015        1.98079        0.417
       21.79906       16.46215       31.20816       -0.834
       22.08739       16.65275       30.31554        0.417
       22.15770       17.17706       31.73401        0.417
        9.51393       28.83597       17.88549       -0.834
        8.57685       28.66458       17.79193        0.417
        9.66668       29.62496       17.36550        0.417
       10.40940       17.18808        5.37425       -0.834
       10.57450       17.73269        4.60459        0.417
        9.59235       17.52868        5.73846        0.417
        4.03752       20.83907       14.90983       -0.834
        3.58197       21.65274       15.12578        0.417
        4.83354       21.12187       14.45972        0.417
       13.60575       24.52791       29.04723       -0.834
       14.41626       24.99429       29.25165        0.417
       12.93642       25.21155       29.01765        0.417
        5.11805       23.54411       18.64020       -0.834
        5.68396       24.31604       18.64976        0.417
        4.22920       23.89773       18.67384        0.417
       19.40220       13.11722       25.53461       -0.834
       19.47419       12.74856       26.41503        0.417
       20.01625       13.85149       25.53094        0.417
       26.43037       15.62484       16.13407       -0.834
       27.03831       14.89008       16.05182        0.417
       25.58236       15.21637       16.30805        0.417
       19.57607       14.54793        2.63353       -0.834
       20.34717       14.42424        2.08005        0.417
       18.95991       13.87673        2.34015        0.417
       13.05414        8.50406        6.26981       -0.834
       13.92160        8.10067        6.23777        0.417
       12.62574        8.09264        7.02044        0.417
       14.89891       25.48361        7.23628       -0.834
       14.27918       24.82795        6.91647        0.417
       14.43132       25.93231        7.94074        0.417
       17.60008       21.15992       27.22558       -0.834
       18.18871       20.49935       26.86036        0.417
       18.02499       21.99487       27.02925        0.417
       22.64647       10.77353       16.27216       -0.834
       22.92010       11.19816       17.08521        0.417
       23.24082       11.12194       15.60764        0.417
        7.91259       15.69088       14.20854       -0.834
        8.27112       15.64341       15.09479        0.417
        6.96650       15.76105       14.33584        0.417
       18.49117        7.68577        8.35456       -0.834
       18.44256        6.78202        8.66616        0.417
       18.53666        7.60892        7.40153        0.417
       22.94529        4.05908       15.11965       -0.834
       22.22409        4.00922       14.49227        0.417
       22.94793        3.20443       15.55068        0.417
        6.09707       20.50058       12.22698       -0.834
        5.74437       21.31032       11.85799        0.417
        6.52649       20.06768       11.48912        0.417
       16.68825       11.20217       22.14983       -0.834
       16.39879       10.74646       21.35940        0.417
       17.44920       10.70436       22.44879        0.417
       14.09218       20.63174        4.97281       -0.834
       14.03053       20.03783        4.22468        0.417
       13.63403       20.17632        5.67915        0.417
       26.36545       19.88989        8.77715       -0.834
       27.22314       19.61930        9.10485        0.417
       25.73939       19.45993        9.35974        0.417
        9.64188       15.32517       23.59258       -0.834
        9.22936       14.93651       22.82122        0.417
       10.57946       15.30067       23.40133        0.417
       24.14568       11.97562       14.26839       -0.834
       23.82376       12.00267       13.36735        0.417
       25.08405       12.14895       14.19328        0.417
       20.87802       17.41560       24.40184       -0.834