%Nproc=32
%Mem=120Gb
%chk=temp.chk
#p cam-b3lyp/6-31+G(d,p) nosymm charge Freq 

Calculation for S0 with freq for abs spect

0  1
 C         15.91726       15.79932       15.42571
 C         16.67333       17.87663       16.41168
 C         17.19830       17.23984       17.47344
 C         17.00066       15.80242       17.61942
 N         16.32315       15.18896       16.61213
 H         16.91822       18.92275       16.16414
 H         17.71483       17.89617       18.19385
 O         17.32264       15.20298       18.60693
 O         15.39596       15.14779       14.58780
 N         16.02200       17.21452       15.39300
 H         15.71044       17.69176       14.50387
 H         16.11228       14.18805       16.82228
 O         16.72091       16.97992       21.18583
 H         17.41752       16.66837       20.60798
 H         16.84007       16.48274       21.99505
 O         15.15783       19.24920       19.51398
 H         14.79827       18.78694       18.75683
 H         15.74830       18.61664       19.92317
 O         19.79111       18.75102       15.60544
 H         20.22602       17.95406       15.30223
 H         19.42649       19.14230       14.81160
 O         20.28066       14.03830       16.65818
 H         21.18102       13.71505       16.69144
 H         19.80521       13.37341       16.16008
 O         18.48779       12.38539       15.11698
 H         17.81175       12.12054       15.74073
 H         18.00929       12.83743       14.42204
 O         12.41265       19.78721       16.66830
 H         12.14517       19.65006       15.75952
 H         12.83672       18.96683       16.92007
 O         18.86987       16.43662       12.50728
 H         19.33169       16.28617       13.33210
 H         18.16482       17.04298       12.73413
 O         13.66165       12.64876       15.44928
 H         13.53033       13.53045       15.79798
 H         14.38871       12.29413       15.96099
 O         13.45751       17.55536       17.98978
 H         12.65214       17.28162       18.42873
 H         13.75264       16.77467       17.52110
 O         12.77579       15.01126       16.45378
 H         12.63058       15.76847       15.88653
 H         11.90034       14.76153       16.74950
 O         18.12532       12.45461       19.27811
 H         18.58830       13.28938       19.34902
 H         18.78986       11.83674       18.97339
 O         21.07903       16.30365       18.89888
 H         20.83830       16.06796       18.00293
 H         21.71448       15.63708       19.15989
 O         16.23500       12.43241       17.03229
 H         16.05483       11.49319       17.07262
 H         16.75000       12.61198       17.81890
 O         20.60845       16.28572       15.06904
 H         21.55059       16.41359       15.17973
 H         20.41896       15.47566       15.54246
 O         17.42151       13.43565       12.90039
 H         17.87733       14.00992       12.28503
 H         16.90365       14.02930       13.44411
 O         20.94710       19.00965       18.17251
 H         20.69116       19.04557       17.25086
 H         20.72971       18.11892       18.44741
 O         13.88149       16.17704       12.55007
 H         13.82354       15.54911       13.27019
 H         14.71761       15.98092       12.12736
 O         16.62115       18.17503       12.84640
 H         16.92622       19.00500       12.47992
 H         16.43517       17.62925       12.08235
 O         15.03084       14.05872       20.63303
 H         15.10772       13.17011       20.28561
 H         15.86799       14.47214       20.42205
 O         14.10306       16.57835       21.13456
 H         15.03012       16.81651       21.12666
 H         14.09094       15.65288       20.89043
 
       13.54603       22.63386        6.62194       -0.834
       13.31872       21.79689        7.02697        0.417
       12.70297       23.03677        6.41423        0.417
       12.18260       13.24272        5.59640       -0.834
       12.04310       12.93860        4.69958        0.417
       11.48098       12.83143        6.10116        0.417
       15.29453       17.30197       24.76837       -0.834
       15.38871       16.35142       24.83026        0.417
       15.90959       17.64673       25.41573        0.417
       23.23344        7.92117        9.95731       -0.834
       23.16177        7.47312       10.80013        0.417
       23.47977        8.81827       10.18261        0.417
       13.34258        9.47792       18.49349       -0.834
       12.46688        9.09148       18.48750        0.417
       13.87589        8.85616       18.98870        0.417
        5.41376       21.56495       10.90481       -0.834
        5.85119       20.76024       11.18290        0.417
        4.76462       21.27592       10.26348        0.417
       22.99376        4.67609       22.90033       -0.834
       22.04399        4.56303       22.86314        0.417
       23.13500        5.59558       22.67491        0.417
       26.90905       19.32935       10.94594       -0.834
       27.56860       20.01762       10.85925        0.417
       26.09953       19.73170       10.63125        0.417
       15.84444       30.06061       18.34411       -0.834
       16.27312       29.92446       19.18906        0.417
       15.34754       30.87118       18.45496        0.417
       10.37129       22.91299       22.89304       -0.834
       10.95166       22.15678       22.97990        0.417
       10.02032       23.04850       23.77320        0.417
       12.32082       13.46689       20.64404       -0.834
       13.23520       13.74335       20.70496        0.417
       12.29724       12.88060       19.88777        0.417
       11.73629        5.85197        9.27427       -0.834
       11.12692        6.13114        8.59091        0.417
       12.57068        6.25238        9.02995        0.417
       24.09814       16.84632       28.99075       -0.834
       23.46510       17.42981       29.40912        0.417
       23.58391       16.08277       28.72850        0.417
        6.06249       14.11397       15.64388       -0.834
        5.24043       13.65853       15.82561        0.417
        6.34159       13.77516       14.79327        0.417
       27.55488       23.31189       21.45834       -0.834
       28.13803       23.86319       20.93658        0.417
       27.60482       23.67807       22.34132        0.417
        6.58256        7.58030       17.50969       -0.834
        5.68765        7.75628       17.21917        0.417
        6.67752        8.08815       18.31549        0.417
       17.01554       13.65444       28.83924       -0.834
       16.43186       14.39847       28.69100        0.417
       16.96387       13.49285       29.78128        0.417
       23.98341       26.80366       19.89298       -0.834
       24.34712       26.91952       20.77078        0.417
       24.44848       26.04578       19.53863        0.417
       13.20272       21.34374       30.55752       -0.834
       13.17100       20.47944       30.96764        0.417
       13.69006       21.20620       29.74523        0.417
        9.35531       22.31199        5.41729       -0.834
        9.61441       21.98833        4.55454        0.417
        9.54430       23.24991        5.38844        0.417
       24.47553       25.41441       15.80744       -0.834
       24.16368       24.73713       15.20723        0.417
       23.73496       26.01402       15.89834        0.417
       27.06637       18.29601       19.19540       -0.834
       27.39990       18.09075       20.06881        0.417
       27.71771       17.92929       18.59748        0.417
        8.27828       24.52546       15.72057       -0.834
        8.48899       25.25577       16.30236        0.417
        9.12610       24.23226       15.38671        0.417
       11.05638       16.58135       18.80269       -0.834
       10.94037       15.65520       18.59051        0.417
       11.20301       16.59433       19.74850        0.417
        9.29935       29.21395       13.63839       -0.834
        9.76155       29.45786       14.44033        0.417
        9.66687       29.78728       12.96574        0.417
        8.78605       11.94895        4.65918       -0.834
        9.33840       11.17221        4.74757        0.417
        8.33640       11.82974        3.82262        0.417
        9.71776        8.57067       26.83730       -0.834
       10.58441        8.93282       26.65290        0.417
        9.70906        8.43999       27.78550        0.417
       16.25905       11.36788       26.18581       -0.834
       15.96396       10.96564       25.36889        0.417
       15.51005       11.88437       26.48325        0.417
        9.55030       11.78206       20.91080       -0.834
        9.70093       12.63727       20.50812        0.417
        8.93126       11.95632       21.61978        0.417
       20.83188       21.81025       11.58317       -0.834
       21.60833       22.18278       12.00101        0.417
       21.16553       21.07523       11.06873        0.417
       20.33765       29.69818       12.27603       -0.834
       19.56243       29.96095       11.77983        0.417
       20.87092       29.21107       11.64788        0.417
       18.42323        7.59165       14.71414       -0.834
       17.67856        7.66678       14.11743        0.417
       18.75043        8.48674       14.80347        0.417
       22.22144       26.96275       16.22411       -0.834
       21.75262       27.06613       17.05221        0.417
       22.13852       27.81361       15.79355        0.417
       17.32337        6.62126        5.53291       -0.834
       17.31496        5.68251        5.71975        0.417
       18.25084        6.83936        5.44102        0.417
       26.65517        9.03587       17.28768       -0.834
       27.16207        8.68037       18.01768        0.417
       26.13014        9.73467       17.67789        0.417
       24.15097       13.26380        5.29924       -0.834
       24.28645       14.11029        4.87340        0.417
       25.00837       12.83940        5.26782        0.417
       28.82847       11.21873       19.58885       -0.834
       27.88494       11.06693       19.64307        0.417
       29.09657       10.77766       18.78274        0.417
       18.90462       15.41348        7.51966       -0.834
       18.99176       14.46042        7.50184        0.417
       19.00153       15.68046        6.60557        0.417
       17.20450        8.36421       28.47365       -0.834
       17.86228        9.05822       28.42998        0.417
       17.70233        7.55433       28.36194        0.417
       11.61335       11.17574       22.93569       -0.834
       11.05220       11.26417       22.16528        0.417
       12.16650       11.95678       22.92061        0.417
        9.03599        8.97074       20.25150       -0.834
        9.51671        8.60660       19.50817        0.417
        8.95498        9.90326       20.05133        0.417
       25.31600       19.86405       13.98878       -0.834
       24.57817       20.25858       14.45374        0.417
       25.84698       19.46353       14.67717        0.417
       20.02228       27.99830       18.00874       -0.834
       20.11357       28.92504       17.78725        0.417
       19.33845       27.67728       17.42090        0.417
        6.51106       16.45178       20.76964       -0.834
        6.74476       17.37685       20.69308        0.417
        6.97951       16.02570       20.05183        0.417
       17.03947       24.69925        4.41929       -0.834
       17.01237       24.13054        5.18875        0.417
       17.50076       24.18488        3.75683        0.417
       24.50916        9.11684        5.81259       -0.834
       25.36878        9.23854        6.21565        0.417
       23.99579        9.86767        6.11083        0.417
       14.71629        3.45628       15.79299       -0.834
       14.04086        3.11287       15.20810        0.417
       14.86688        4.35058       15.48675        0.417
       17.63033       21.20580       24.81618       -0.834
       17.54190       21.27669       23.86571        0.417
       17.14780       21.95810       25.15887        0.417
        7.78279        7.63001        9.85101       -0.834
        7.28227        8.42231        9.65618        0.417
        7.54996        7.41509       10.75424        0.417
       12.28243        9.82871       26.09498       -0.834
       12.03388       10.70055       25.78781        0.417
       12.50499        9.34782       25.29784        0.417
       28.40974       14.42137       15.20529       -0.834
       28.64315       15.32502       15.41783        0.417
       27.71662       14.19992       15.82721        0.417
        6.56128       11.53160       17.65372       -0.834
        6.15968       10.84794       18.18997        0.417
        5.83213       11.91142       17.16350        0.417
       10.38348        7.31572       22.09555       -0.834
        9.88342        7.42195       22.90480        0.417
       10.13189        8.06647       21.55767        0.417
       14.80812       12.77455       23.48032       -0.834
       15.48800       13.36752       23.16033        0.417
       14.69647       13.01193       24.40087        0.417
       16.07279       21.25922        4.27606       -0.834
       16.48224       21.07173        5.12071        0.417
       15.14246       21.08270        4.41589        0.417
       19.40780       15.14326       30.06363       -0.834
       20.21468       15.22451       30.57214        0.417
       18.79350       14.70958       30.65592        0.417
       13.65436       11.70681       30.57771       -0.834
       14.11045       12.07681       31.33355        0.417
       14.34120       11.27240       30.07198        0.417
       18.61666        1.96560       15.74541       -0.834
       18.41596        2.50221       16.51222        0.417
       19.06044        2.56332       15.14371        0.417
       24.20494        7.09298       24.65436       -0.834
       23.30281        7.32420       24.87556        0.417
       24.55902        6.71214       25.45799        0.417
        5.55944        9.76210       19.51989       -0.834
        5.03863       10.42637       19.97126        0.417
        5.46353        8.97588       20.05739        0.417
       17.66793       13.83497       10.21646       -0.834
       18.40839       13.27654        9.97959        0.417
       16.93670       13.22805       10.33125        0.417
       12.04525       20.81098       22.88859       -0.834
       12.53043       21.12908       22.12724        0.417
       12.35963       19.91601       23.01672        0.417
       28.14644       10.63996       15.25242       -0.834
       28.10650       10.17916       14.41439        0.417
       27.56565       10.14223       15.82790        0.417
       25.79661       15.08533       12.35014       -0.834
       26.45216       14.44303       12.62206        0.417
       25.51586       15.50147       13.16515        0.417
       16.37310       26.48699       23.90469       -0.834
       17.29517       26.72712       23.99617        0.417
       16.32532       26.03473       23.06242        0.417
       10.75903        7.76717       18.29237       -0.834
       10.54122        7.66678       17.36570        0.417
       10.97810        6.88240       18.58462        0.417
       25.47499       26.77689       22.28280       -0.834
       24.92055       26.46376       22.99749        0.417
       26.32821       26.92803       22.68951        0.417
        5.93949       23.67723       22.18937       -0.834
        6.13192       23.48233       23.10654        0.417
        6.70196       24.16833       21.88329        0.417
       11.57739       16.24106       10.20675       -0.834
       11.59966       16.97080        9.58771        0.417
       12.26848       16.44083       10.83819        0.417
        5.35774        9.07881       11.53796       -0.834
        5.88131        9.76547       11.95102        0.417
        5.07909        8.52022       12.26361        0.417
       25.37428       11.38276       13.55323       -0.834
       24.77636       12.12830       13.60694        0.417
       26.24774       11.77388       13.57088        0.417
       20.86870       24.85640       15.12524       -0.834
       21.56398       25.37765       15.52663        0.417
       20.26165       25.50286       14.76494        0.417
       20.61526        3.81350       14.64377       -0.834
       20.43787        4.59084       14.11413        0.417
       20.77084        3.11807       14.00471        0.417
       12.45215        9.71450        7.52382       -0.834
       12.66695       10.40163        6.89299        0.417
       12.09455        9.00360        6.99187        0.417
        7.66886       21.25009        7.44382       -0.834
        8.23159       21.56375        6.73587        0.417
        7.09548       21.99083        7.64072        0.417
        5.60897        9.32676       25.33667       -0.834
        6.11685       10.09390       25.07250        0.417
        4.85038        9.68756       25.79557        0.417
       16.61506        4.34088       20.29624       -0.834
       15.76802        4.41686       20.73553        0.417
       16.75561        5.19891       19.89592        0.417
       27.60040       17.49725       24.49725       -0.834
       27.63474       18.42929       24.28196        0.417
       26.70412       17.35401       24.80120        0.417
       14.01126       25.00016        4.14641       -0.834
       14.79197       25.33598        4.58680        0.417
       13.30938       25.10560        4.78865        0.417
       16.42830       16.21002       10.99256       -0.834
       16.88970       16.72966       10.33430        0.417
       16.87640       15.36420       10.98792        0.417
       18.00816        8.94222       18.46360       -0.834
       18.08994        8.16673       17.90848        0.417
       17.13568        9.28503       18.26998        0.417
        8.78358       13.62657       15.87769       -0.834
        9.03593       12.81246       15.44207        0.417
        7.84093       13.54044       16.01992        0.417
       20.39931       10.36206       14.76698       -0.834
       19.96375       11.21187       14.70096        0.417
       20.90658       10.41467       15.57700        0.417
        3.81033       23.79614       18.48546       -0.834
        4.68268       23.40263       18.46575        0.417
        3.77285       24.25476       19.32481        0.417
       11.18431       12.35386       10.83207       -0.834
       11.85611       12.00398       11.41730        0.417
       11.66751       12.89775       10.21003        0.417
       22.79760       23.75539        7.36149       -0.834
       23.41262       24.42078        7.05288        0.417
       21.97672       24.22985        7.49292        0.417
        6.29143       23.13947       17.62315       -0.834
        6.96751       23.07713       18.29789        0.417
        6.69958       23.64532       16.92048        0.417
       23.12118       29.56048       15.85384       -0.834
       23.73456       29.84952       16.52946        0.417
       22.26242       29.83349       16.17669        0.417
       29.46259       20.27207       16.35593       -0.834
       29.96267       19.71396       16.95147        0.417
       30.12547       20.69601       15.81087        0.417
        7.98004       18.91785        8.95598       -0.834
        7.84227       19.85292        8.80464        0.417
        8.92788       18.80129        8.89081        0.417
       16.83140       24.08936       11.06681       -0.834
       16.78560       23.24994       10.60909        0.417
       17.66218       24.05897       11.54127        0.417
       11.05012        4.46387       15.12824       -0.834
       11.35843        4.10363       15.95975        0.417
       11.68249        4.15034       14.48168        0.417
        9.86645       19.36484       27.89668       -0.834
        9.43793       19.60941       27.07645        0.417
       10.78504       19.60076       27.76717        0.417
       13.94319       27.34784       24.77821       -0.834
       13.95775       27.39799       25.73399        0.417
       14.86457       27.28217       24.52727        0.417
       21.99265       24.06826       18.55581       -0.834
       22.46502       24.38075       19.32747        0.417
       22.20559       23.13642       18.50513        0.417
       13.37200       17.21667       26.99853       -0.834
       13.65454       17.11171       26.09002        0.417
       12.77000       17.96059       26.97822        0.417
       22.69297       13.31574       15.85278       -0.834
       23.34850       12.74914       16.25957        0.417
       22.84898       13.22664       14.91259        0.417
       19.96608       10.53417       19.41408       -0.834
       19.58596        9.80501       18.92412        0.417
       20.91126       10.43031       19.30420        0.417
       28.61983       12.74075        9.99677       -0.834
       29.03594       12.19141        9.33247        0.417
       28.60410       12.19569       10.78347        0.417
       21.20624       17.27158       21.60711       -0.834
       21.76522       18.00741       21.35745        0.417
       21.08543       16.77630       20.79696        0.417
        7.59729       10.22489        8.93910       -0.834
        8.53394       10.36163        8.79691        0.417
        7.28937       11.04819        9.31803        0.417
        7.72388       19.10585       20.06896       -0.834
        8.55300       19.02650       20.54066        0.417
        7.93911       18.87614       19.16500        0.417
        7.12426       17.64590        4.01317       -0.834
        7.37550       18.10350        4.81548        0.417
        7.74411       17.95878        3.35429        0.417
       10.78192       28.36970        9.75591       -0.834
       10.08737       29.02809        9.77488        0.417
       11.46356       28.75572        9.20583        0.417
       21.95538        6.58433       19.38159       -0.834
       21.72007        5.75586       18.96387        0.417
       22.90932        6.62483       19.31381        0.417
       29.22274       17.15942       15.32206       -0.834
       28.49322       17.33229       15.91718        0.417
       28.86171       17.31282       14.44893        0.417
       13.97614       12.92508       26.55189       -0.834
       13.26204       12.68053       25.96325        0.417
       13.56525       12.98903       27.41404        0.417
       21.32182       12.12150       11.55352       -0.834
       20.79491       12.18523       10.75694        0.417
       21.19417       11.22181       11.85435        0.417
       14.07022        9.73535        9.76595       -0.834
       13.62430        9.29850       10.49158        0.417
       13.38421        9.87834        9.11389        0.417
        8.67263       19.01381        5.82371       -0.834
        9.26544       18.28004        5.98613        0.417
        8.54110       19.41115        6.68455        0.417
        9.47735        4.88978       20.94842       -0.834
        9.77028        5.70629       21.35306        0.417
        8.65822        4.68000       21.39702        0.417
       10.47460        3.67896       10.31163       -0.834
       10.82492        4.53941       10.08112        0.417
       11.24507        3.11399       10.37018        0.417
        9.65756       26.67367       25.18827       -0.834
        8.79057       26.80234       24.80354        0.417
       10.24463       26.59567       24.43628        0.417
       24.86516       13.47512       20.64005       -0.834
       24.81052       13.48732       21.59561        0.417
       25.45421       14.19804       20.42410        0.417
       15.03915       11.40744       19.93804       -0.834
       15.02491       11.13734       20.85623        0.417
       14.40502       10.83294       19.50902        0.417
       15.14019       10.47081        5.86099       -0.834
       16.03580       10.58313        6.17958        0.417
       14.82091       11.36260        5.72310        0.417
       25.34579        5.90614       10.22282       -0.834
       24.44453        6.05963        9.93929        0.417
       25.31692        5.05804       10.66568        0.417
        9.82771       14.45825       21.53605       -0.834
       10.73780       14.16661       21.48204        0.417
        9.88664       15.39549       21.72135        0.417
       24.04690       21.13010        8.64869       -0.834
       23.64761       21.92270        8.29012        0.417
       23.30507       20.58777        8.91664        0.417
       14.37639       21.64767       16.19442       -0.834
       13.99685       22.38882       16.66653        0.417
       13.68868       20.98189       16.20017        0.417
       29.10834       21.23812       24.16325       -0.834
       28.36330       20.95253       23.63448        0.417
       29.05099       22.19360       24.16242        0.417
       12.60688       13.84516        9.08289       -0.834
       12.32621       13.64412        8.19012        0.417
       12.48320       14.79068        9.16616        0.417
       25.62179       24.57289       19.92227       -0.834
       25.39571       23.64811       19.82276        0.417
       25.31412       24.80215       20.79921        0.417
       18.94654        3.15450       20.39638       -0.834
       18.25004        3.80802       20.33296        0.417
       18.54699        2.42280       20.86671        0.417
       21.68486        9.49816       12.61805       -0.834
       22.05562        8.61615       12.58924        0.417
       21.43828        9.62503       13.53420        0.417
       15.35540        6.73035       15.45148       -0.834
       15.40294        6.51428       14.52020        0.417
       15.19414        7.67367       15.47105        0.417
       12.87133        8.87230       12.18184       -0.834
       12.71032        8.56186       13.07287        0.417
       12.04738        8.71562       11.72056        0.417
        4.60167       19.67080        7.32437       -0.834
        5.55553       19.73682        7.36922        0.417
        4.41954       18.73915        7.44717        0.417
       23.45710       20.60432       27.96546       -0.834
       23.77914       21.49376       27.81910        0.417
       23.97170       20.06145       27.36821        0.417
       10.42579        8.55711       11.11703       -0.834
       10.16979        9.31672       10.59389        0.417
        9.66452        7.97761       11.08723        0.417
       19.64172       12.77733        6.40195       -0.834
       18.88800       12.98697        5.85039        0.417
       20.40154       12.95328        5.84703        0.417
       29.56610       13.22608       21.24298       -0.834
       28.88221       13.26082       21.91180        0.417
       29.48998       12.34900       20.86725        0.417
       20.35484       25.60156       25.15716       -0.834
       19.69967       25.01457       24.77975        0.417
       19.93516       26.46186       25.15633        0.417
       21.23855       14.85838       25.07596       -0.834
       21.73545       14.07012       25.29499        0.417
       20.48124       14.83494       25.66091        0.417
       26.64013       16.93643        5.22402       -0.834
       27.19319       16.95238        6.00511        0.417
       26.88493       17.72540        4.74047        0.417
       15.34288        6.10826       12.99094       -0.834
       15.90916        6.49677       12.32414        0.417
       14.75261        5.53598       12.50071        0.417
       22.79134        6.85677       12.51291       -0.834
       23.30710        6.73008       13.30925        0.417
       22.71136        5.98020       12.13679        0.417
       22.33362        4.20299       12.18568       -0.834
       21.66813        3.68364       11.73443        0.417
       22.67775        3.61793       12.86060        0.417
       27.76300       21.24115       13.80600       -0.834
       26.88479       20.96241       13.54659        0.417
       28.26424       21.24494       12.99054        0.417
       24.19978       22.98502       26.75944       -0.834
       24.31378       22.72160       25.84629        0.417
       23.43278       23.55761       26.75007        0.417
       22.15368       10.38079       16.77970       -0.834
       22.74941       11.03558       17.14383        0.417
       22.57327        9.54195       16.97082        0.417
       21.40236        3.93926       20.09927       -0.834
       21.82625        3.84245       20.95201        0.417
       20.52718        3.57192       20.22323        0.417
       19.71303       18.85995       10.54194       -0.834
       18.92317       19.34794       10.77483        0.417
       20.25337       18.88695       11.33159        0.417
        5.92141       16.72815       24.50210       -0.834
        5.22638       17.14910       23.99617        0.417
        6.71894       16.89584       24.00003        0.417
       21.75298       19.93455       25.49230       -0.834
       21.39264       19.46911       24.73748        0.417
       21.00782       20.04826       26.08224        0.417
       11.33731       21.49668       18.68310       -0.834
       10.98582       22.20407       18.14246        0.417
       11.80046       20.93035       18.06586        0.417
       24.33752        8.95832       13.74119       -0.834
       24.94403        8.43978       13.21251        0.417
       24.77999        9.79892       13.85881        0.417
       15.47405        6.39034       22.50924       -0.834
       16.41949        6.39010       22.65881        0.417
       15.10863        5.96056       23.28254        0.417
       29.55950       15.29914       10.27098       -0.834