%Nproc=32
%Mem=120Gb
%chk=temp.chk
#p cam-b3lyp/6-31+G(d,p) nosymm charge Freq 

Calculation for S0 with freq for abs spect

0  1
 C         16.40387       17.44699       17.75734
 C         17.42594       15.51233       16.63602
 C         16.69154       15.64137       15.50642
 C         15.74452       16.71004       15.42166
 N         15.80770       17.56677       16.57629
 H         18.23264       14.80321       16.67097
 H         16.74805       14.93947       14.67829
 O         14.98601       16.91324       14.52682
 O         16.29338       18.23109       18.69182
 N         17.30700       16.37671       17.70762
 H         17.96002       16.29021       18.55170
 H         15.28975       18.41544       16.47946
 O         13.16546       18.95731       17.46843
 H         12.66201       19.72306       17.74483
 H         13.47537       18.56624       18.28528
 O         19.33390       20.45868       18.66941
 H         19.09132       20.01514       17.85660
 H         18.67363       21.14355       18.77536
 O         17.24455       18.72857       21.59926
 H         16.78635       18.46226       20.80216
 H         17.75038       17.95706       21.85445
 O         16.49362       15.74319       22.07534
 H         16.14705       15.04716       22.63360
 H         15.77102       15.96071       21.48647
 O         18.51948       18.97183       14.20820
 H         19.01531       19.46254       13.55277
 H         19.17756       18.44610       14.66292
 O         14.44186       12.63676       17.16508
 H         14.87321       12.59497       16.31160
 H         14.08919       13.52536       17.21248
 O         21.12813       15.43418       17.36332
 H         21.23537       16.29071       16.94969
 H         22.02135       15.11053       17.48007
 O         15.79709       19.46084       13.56037
 H         16.72417       19.31667       13.75005
 H         15.34497       18.75502       14.02257
 O         16.46161       20.75876       19.66820
 H         16.36347       19.99935       19.09383
 H         16.95647       20.42974       20.41860
 O         11.88882       17.01752       15.87350
 H         12.05033       17.76527       16.44884
 H         12.48364       16.33788       16.19056
 O         13.44926       15.93159       18.31468
 H         13.44110       16.40445       19.14688
 H         12.96469       15.12537       18.49198
 O         19.58840       16.66722       19.81086
 H         20.15573       17.34974       20.16936
 H         19.99098       16.43563       18.97389
 O         14.75568       13.32986       20.60036
 H         13.84927       13.02649       20.65149
 H         14.95682       13.32840       19.66453
 O         18.35454       17.07655       12.19826
 H         17.70730       17.40373       12.82298
 H         17.84965       16.88447       11.40806
 O         20.62906       17.70659       15.39793
 H         21.29614       17.31996       14.83070
 H         21.00164       18.54551       15.66926
 O         17.99485       21.11456       16.17455
 H         17.06523       21.06555       16.39734
 H         18.09855       20.50670       15.44245
 O         19.43944       14.31964       12.92271
 H         19.34165       13.73390       13.67344
 H         18.78515       15.00363       13.06516
 
        7.30471       27.43090       11.99853       -0.834
        7.91388       26.81845       11.58617        0.417
        7.04512       26.99962       12.81268        0.417
       18.52404       15.09727       30.26103       -0.834
       17.65369       15.49050       30.32496        0.417
       18.84617       15.36595       29.40064        0.417
       32.32012       16.93677       14.87761       -0.834
       31.45299       16.95732       15.28244        0.417
       32.60304       17.85117       14.86976        0.417
       16.08076       24.70005       19.01262       -0.834
       16.64483       24.44565       18.28232        0.417
       16.66641       25.14683       19.62388        0.417
       17.71438       12.44170        9.89414       -0.834
       17.01209       13.06626        9.71262        0.417
       18.47327       12.98727       10.10071        0.417
       11.26194       20.53966        9.10626       -0.834
       10.99450       21.44075        8.92530        0.417
       12.08033       20.62582        9.59519        0.417
       16.09000       10.39102       10.77817       -0.834
       16.80087       10.98885       10.54685        0.417
       16.51620        9.69174       11.27374        0.417
        6.22015       24.00137       16.55763       -0.834
        7.15855       24.16874       16.64492        0.417
        5.84121       24.32786       17.37374        0.417
       10.08719       21.96908       22.18752       -0.834
       10.73598       22.54890       21.78864        0.417
        9.60930       22.52872       22.79962        0.417
       12.94505       25.86598       13.72054       -0.834
       12.32932       25.16130       13.92185        0.417
       12.57800       26.29128       12.94554        0.417
        8.39192       10.04260       23.52594       -0.834
        7.54036        9.90628       23.11061        0.417
        9.01569       10.04325       22.79989        0.417
       23.45551       14.86903       20.06698       -0.834
       24.03731       14.23386       20.48449        0.417
       22.57782       14.61328       20.35072        0.417
       27.34962       21.84511       18.94507       -0.834
       27.35220       22.28207       19.79671        0.417
       27.72526       20.98169       19.11720        0.417
       23.46603        8.67959       21.42596       -0.834
       22.96640        8.22256       20.74939        0.417
       24.35645        8.33960       21.33763        0.417
       27.73576       20.70537        8.22568       -0.834
       28.50932       21.24026        8.04754        0.417
       27.10141       20.97166        7.56016        0.417
       17.69073       15.75278        3.32162       -0.834
       17.12395       15.29875        2.69804        0.417
       18.18942       15.05422        3.74535        0.417
       13.89170       19.01797       26.47155       -0.834
       14.81529       18.82315       26.63043        0.417
       13.80355       19.00197       25.51855        0.417
       20.56915       21.14191        9.08114       -0.834
       20.67998       22.09082        9.02183        0.417
       19.95708       20.92732        8.37719        0.417
        7.79087       13.31767       24.18318       -0.834
        7.81934       14.27272       24.24048        0.417
        8.20782       13.01628       24.99037        0.417
       10.46605       17.18171       23.95937       -0.834
       10.64211       18.04466       23.58445        0.417
       10.90545       16.56946       23.36920        0.417
       25.75764       17.99794       24.87684       -0.834
       25.99996       17.98927       25.80282        0.417
       24.84874       17.69801       24.86381        0.417
       27.34936       10.14879       13.06885       -0.834
       27.06041        9.24745       12.92629        0.417
       27.64703       10.44431       12.20845        0.417
       10.86078       15.47608       13.86824       -0.834
       11.04775       16.02073       14.63285        0.417
        9.90821       15.38206       13.86771        0.417
       14.92967       28.87289       23.38999       -0.834
       14.00533       28.96298       23.15823        0.417
       15.02785       29.38894       24.19017        0.417
        7.76933       17.95505        6.16573       -0.834
        7.10878       17.43990        5.70255        0.417
        7.39063       18.83206        6.22634        0.417
       20.48078       26.45520       18.45185       -0.834
       21.43321       26.51460       18.52662        0.417
       20.23336       27.21623       17.92663        0.417
        4.18269       21.55264       20.04407       -0.834
        4.48489       22.16535       20.71451        0.417
        4.45656       20.69294       20.36368        0.417
       12.85229        7.42157       20.63869       -0.834
       12.19038        7.15626       20.00016        0.417
       13.65876        7.50131       20.12932        0.417
       20.70226       18.55237        4.71094       -0.834
       21.45798       18.35583        4.15731        0.417
       20.08370       18.99008        4.12612        0.417
       12.40843       31.52492       17.22294       -0.834
       11.76524       31.90617       16.62529        0.417
       12.57876       30.65261       16.86755        0.417
       14.95946       18.90259       31.06001       -0.834
       14.54809       18.40992       30.34988        0.417
       15.82030       19.14346       30.71770        0.417
       21.32739        4.67545       12.43698       -0.834
       20.90871        4.79160       13.28989        0.417
       21.70358        3.79598       12.47208        0.417
        8.78690       14.02089       21.67891       -0.834
        8.41824       13.92859       22.55743        0.417
        8.62380       13.17573       21.26019        0.417
       32.00672       14.53157       17.03669       -0.834
       31.19691       14.92293       17.36422        0.417
       32.65083       15.23807       17.08368        0.417
       20.95889       23.81124        8.67103       -0.834
       21.23811       24.13880        7.81606        0.417
       21.76499       23.50252        9.08470        0.417
       10.21008       18.24777        4.92287       -0.834
        9.51274       18.23035        5.57834        0.417
       10.67632       19.06682        5.09020        0.417
        5.81457       26.34278       14.36361       -0.834
        6.20580       25.48625       14.19173        0.417
        6.51160       26.84455       14.78621        0.417
       20.47412       17.75381       23.15399       -0.834
       20.11177       16.97957       22.72330        0.417
       20.35783       18.45908       22.51736        0.417
        9.38095       11.24816       16.39938       -0.834
        9.60500       11.75235       15.61719        0.417
       10.20956       10.85974       16.68004        0.417
       16.34932        7.84279       21.92715       -0.834
       16.05007        8.74480       22.04147        0.417
       16.37542        7.48434       22.81431        0.417
        6.53020        8.99071       21.95261       -0.834
        5.83542        8.50753       22.39987        0.417
        6.56372        8.60685       21.07639        0.417
       13.62990       21.62778        2.22798       -0.834
       13.53596       20.78856        1.77730        0.417
       13.98243       21.40005        3.08827        0.417
       11.40148       23.69455        5.80031       -0.834
       12.34400       23.82399        5.90584        0.417
       11.32664       22.98552        5.16163        0.417
        4.51620       19.18784       21.58537       -0.834
        5.14257       18.63409       22.05148        0.417
        3.68366       18.72088       21.65657        0.417
       10.31625       19.00076       18.62638       -0.834
        9.54594       18.71269       18.13662        0.417
       10.45412       19.90564       18.34636        0.417
       19.88739       20.58189       26.28799       -0.834
       19.26279       19.92996       26.60594        0.417
       20.02433       21.16658       27.03338        0.417
       12.11953        8.60997       17.69544       -0.834
       12.81268        8.28361       17.12162        0.417
       11.96149        9.50519       17.39571        0.417
       24.30498       24.17540       22.15198       -0.834
       23.95478       24.88690       21.61593        0.417
       25.20933       24.43276       22.33130        0.417
       19.00979        9.56591        9.37132       -0.834
       18.84651       10.49356        9.54174        0.417
       19.92123        9.53208        9.08085        0.417
       16.57720        2.34935       15.82488       -0.834
       16.98262        1.53067       15.53917        0.417
       15.65583        2.25849       15.58185        0.417
       18.54956       17.51588       25.38667       -0.834
       17.90990       17.12775       24.78965        0.417
       19.39777       17.32767       24.98499        0.417
       13.96745       24.87176       26.86438       -0.834
       14.29732       23.99785       26.65534        0.417
       13.14936       24.71316       27.33535        0.417
       12.30160       29.72544       21.25789       -0.834
       11.42464       29.67153       20.87806        0.417
       12.29625       29.08183       21.96639        0.417
        8.07969       11.40089       20.70629       -0.834
        7.29163       11.02983       21.10318        0.417
        7.83089       11.57806       19.79913        0.417
       15.46852       30.25175       20.72595       -0.834
       14.55845       29.99341       20.87176        0.417
       15.97302       29.45427       20.88637        0.417
       13.03615       18.35552       10.14378       -0.834
       13.40507       19.23768       10.18760        0.417
       12.58017       18.24437       10.97803        0.417
       13.71176       21.13030       12.83600       -0.834
       14.49633       20.60542       12.99472        0.417
       13.73959       21.81244       13.50692        0.417
        9.07441       20.29020       29.04774       -0.834
        9.24901       20.08661       28.12888        0.417
        9.69875       19.75297       29.53541        0.417
        1.81408       21.87080       14.90901       -0.834
        2.66615       21.51277       15.15808        0.417
        2.01484       22.72653       14.53001        0.417
        1.79961       21.05368       18.76604       -0.834
        1.25183       21.70735       19.20066        0.417
        2.66973       21.17982       19.14446        0.417
       21.27439       22.37665        5.56217       -0.834
       20.55192       22.88724        5.19669        0.417
       21.42811       21.68419        4.91944        0.417
       25.37033       25.28456       10.78019       -0.834
       25.81258       24.48159       10.50471        0.417
       24.62497       25.36433       10.18495        0.417
       22.95045       16.40961       14.34609       -0.834
       22.42774       16.27758       13.55514        0.417
       23.19934       15.52668       14.61941        0.417
        4.32711       15.37515       24.83824       -0.834
        4.66173       15.58225       25.71081        0.417
        4.73150       16.02663       24.26528        0.417
        2.87208       18.40997       15.36121       -0.834
        3.51434       18.54755       16.05749        0.417
        3.34345       18.61989       14.55501        0.417
       18.68040        7.53182       14.36095       -0.834
       18.30126        7.52536       15.23984        0.417
       19.33565        8.22908       14.38736        0.417
       23.53659       19.02385        9.70109       -0.834
       22.75460       18.47486        9.75910        0.417
       23.20127       19.92039        9.70578        0.417
       23.53453        6.31336       13.68233       -0.834
       24.25099        5.71809       13.90274        0.417
       22.86112        5.74843       13.30333        0.417
       25.14139       12.08222       24.72785       -0.834
       24.89045       12.98788       24.90961        0.417
       25.24169       11.68294       25.59199        0.417
       10.19815       17.38144       29.84576       -0.834
       10.64850       16.83644       30.49105        0.417
       10.83086       18.06515       29.62565        0.417
       11.44738       26.66527       11.64971       -0.834
       10.76458       26.39400       11.03617        0.417
       11.07159       27.41525       12.11075        0.417
       18.69996        3.90919       23.57020       -0.834
       18.59838        3.54012       24.44753        0.417
       19.62176        3.76675       23.35518        0.417
       29.40552       10.54808       21.21900       -0.834
       28.63569       10.35612       21.75450        0.417
       29.55726       11.48487       21.34397        0.417
       23.41373       14.56462        9.68933       -0.834
       23.72273       15.45548        9.85401        0.417
       24.12249       14.15219        9.19558        0.417
       12.07867        4.60186        7.67776       -0.834
       12.35926        5.51679        7.69786        0.417
       11.13618        4.63624        7.84139        0.417
       21.14894        9.38724       26.02478       -0.834
       20.36408        9.88373       26.25656        0.417
       21.20295        9.45497       25.07150        0.417
       15.42357       21.55900       17.32931       -0.834
       15.61290       22.49389       17.40905        0.417
       15.57429       21.20791       18.20695        0.417
        8.16812       17.98610       26.63137       -0.834
        9.11886       18.04425       26.53678        0.417
        8.02124       17.97572       27.57717        0.417
       14.01801        4.82680       18.18789       -0.834
       14.67506        5.50854       18.32837        0.417
       14.24025        4.45120       17.33597        0.417
       19.68415       28.57774       16.43003       -0.834
       19.76454       29.50694       16.21471        0.417
       19.03291       28.24390       15.81305        0.417
        9.61229        7.78696       18.74889       -0.834
       10.31208        7.15448       18.91168        0.417
        9.86141        8.21496       17.92976        0.417
       28.26595       24.19204       12.36687       -0.834
       28.10577       23.43704       12.93304        0.417
       27.88199       23.94654       11.52513        0.417
       16.33198        3.31029        8.10921       -0.834
       16.22081        4.22231        8.37772        0.417
       16.40970        3.34855        7.15593        0.417
       13.29942        4.98288       22.15671       -0.834
       14.21276        5.26282       22.09604        0.417
       12.79598        5.73994       21.85732        0.417
       25.55948       12.98323        9.16110       -0.834
       25.03059       12.58296        9.85124        0.417
       26.46327       12.87077        9.45565        0.417
       15.55069       15.29355       30.77859       -0.834
       15.03227       14.53416       31.04467        0.417
       15.24692       15.49317       29.89310        0.417
       14.02505        4.80148       15.31722       -0.834
       14.09677        4.51972       14.40525        0.417
       13.18308        5.25450       15.36294        0.417
        6.24130       10.83760       14.26237       -0.834
        6.87673       11.34670       13.75910        0.417
        5.77087       11.48845       14.78325        0.417
       15.29405       12.32675        7.03932       -0.834
       15.04383       11.51823        6.59217        0.417
       15.21284       13.00617        6.36995        0.417
        4.57593       14.30295       18.67059       -0.834
        4.46854       14.85443       17.89563        0.417
        3.68292       14.13687       18.97257        0.417
        3.10236       22.20432       11.70379       -0.834
        4.04751       22.34738       11.75333        0.417
        2.74043       22.74732       12.40407        0.417
       20.86729       18.58231       10.00411       -0.834
       20.41235       18.04941        9.35197        0.417
       20.82273       19.47395        9.65884        0.417
       11.93338       19.35598       29.13065       -0.834
       12.50885       19.07207       28.42040        0.417
       12.33667       20.15928       29.45973        0.417
        4.99276       12.49446       23.96843       -0.834
        5.87023       12.60423       24.33480        0.417
        4.43215       13.03917       24.52092        0.417
       18.07911       25.14999       14.98528       -0.834
       18.77701       24.67864       15.44025        0.417
       18.53293       25.83388       14.49275        0.417
        2.30318       17.46895       11.15289       -0.834
        2.62873       18.08648       11.80780        0.417
        1.39919       17.29523       11.41530        0.417
       22.42500        8.11498       10.91532       -0.834
       21.81383        7.73282       11.54512        0.417
       23.05957        7.41909       10.74410        0.417
       17.54231       22.48014       29.03824       -0.834
       18.04403       23.14385       29.51153        0.417
       17.93126       21.64801       29.30749        0.417
       11.75958       11.50313       27.51394       -0.834
       10.96860       11.49883       26.97490        0.417
       11.80130       12.38994       27.87178        0.417
        4.11332       14.06933       21.68991       -0.834
        4.09383       13.58186       22.51346        0.417
        4.65866       14.83359       21.87627        0.417
       26.46423        8.95966       25.78255       -0.834
       25.50926        8.89453       25.77871        0.417
       26.73081        8.62859       24.92490        0.417
       18.57546       30.49380       21.54831       -0.834
       17.95375       29.79109       21.73783        0.417
       19.22128       30.43929       22.25270        0.417
       16.69826        5.85151       24.13421       -0.834
       16.08502        5.32340       24.64536        0.417
       17.32638        5.21920       23.78508        0.417
        8.31699       17.69909       21.37656       -0.834
        7.64846       18.05754       20.79276        0.417
        8.31405       18.28523       22.13330        0.417
        8.64315       21.84190       10.15735       -0.834
        8.52226       20.97665        9.76624        0.417
        9.08190       22.35337        9.47755        0.417
       14.37891       22.80255       19.90156       -0.834
       14.95726       22.03998       19.88612        0.417
       14.89658       23.50438       19.50698        0.417
       16.21554        6.66180        5.53625       -0.834
       16.32824        6.78509        6.47876        0.417
       16.24445        7.54704        5.17327        0.417
       21.39914       15.39261       30.53297       -0.834
       21.08940       16.28596       30.68203        0.417
       20.60070       14.86716       30.48189        0.417
       18.04904       30.83344       18.95664       -0.834
       17.81223       29.95002       18.67431        0.417
       18.14465       30.76427       19.90654        0.417
       30.03912       16.96884       22.86563       -0.834
       30.34284       16.77876       21.97802        0.417
       29.09578       16.80927       22.83580        0.417
       12.98391        9.75654       25.30031       -0.834
       12.12068        9.35413       25.20474        0.417
       13.49394        9.11566       25.79567        0.417
       17.94009       28.10120       14.17403       -0.834
       17.27395       27.61146       13.69170        0.417
       18.25664       28.75431       13.54995        0.417
       15.98648       14.12935       24.43652       -0.834
       15.12185       13.76026       24.61660        0.417
       16.51393       13.88756       25.19781        0.417
       20.86783        7.47266        5.05715       -0.834
       21.17934        6.64044        5.41298        0.417
       20.07902        7.66945        5.56240        0.417
       11.37302       17.79563       26.38282       -0.834
       12.19992       18.27773       26.37661        0.417
       11.19184       17.61800       25.45986        0.417
       11.38022       10.45958        3.98295       -0.834
       11.36205       10.75439        3.07246        0.417
       11.70841       11.21359        4.47284        0.417
        6.15934       15.46791       20.68415       -0.834
        5.64728       14.96189       20.05330        0.417
        7.04611       15.11489       20.61166        0.417
       19.92935       12.63752       15.08864       -0.834
       20.61643       12.14370       14.64109        0.417
       20.39050       13.12700       15.76980        0.417
        1.16795       16.45999       18.42956       -0.834
        1.88916       17.08930       18.43657        0.417
        0.45594       16.90585       18.88836        0.417
       11.35293       23.82524       17.88297       -0.834
       11.71848       24.66748       17.61237        0.417
       10.43411       24.01291       18.07478        0.417
       12.00961       10.66663        8.34649       -0.834
       11.98200       11.11464        7.50105        0.417
       11.79360       11.34600        8.98526        0.417
       22.91124       28.46509       11.63370       -0.834
       23.13908       29.30001       12.04265        0.417
       22.35356       28.70468       10.89355        0.417
       12.15489       19.84211        6.07752       -0.834
       11.64370       19.73452        6.87961        0.417
       13.02460       19.51058        6.30094        0.417
       27.92137       14.99007       25.15482       -0.834
       27.35678       15.31523       25.85607        0.417
       27.56429       15.38214       24.35795        0.417
       11.76603       26.61512       27.12998       -0.834
       11.57765       27.51928       27.38144        0.417
       12.71992       26.57957       27.05888        0.417
       19.14039       12.17549       18.71523       -0.834
       19.77782       12.50507       18.08176        0.417
       19.63707       11.56492       19.25998        0.417
       20.92287       26.92559       24.66297       -0.834
       20.62606       27.33498       25.47570        0.417
       20.62889       26.01717       24.73054        0.417
       27.06255       12.14259       19.67087       -0.834
       26.27609       11.94898       20.18099        0.417
       26.93228       11.67884       18.84370        0.417
       23.42316       22.52226        7.20822       -0.834
       22.52229       22.58164        6.89012        0.417
       23.74796       21.69365        6.85585        0.417
       10.01204        6.52092       23.49887       -0.834
        9.37635        7.11798       23.10435        0.417
       10.03254        5.76783       22.90839        0.417
       23.11835       23.22872       18.52597       -0.834
       23.61095       23.99204       18.82749        0.417
       23.51284       23.00630       17.68269        0.417
       13.97343        9.55668       22.80717       -0.834
       13.64077        9.63994       23.70083        0.417
       13.30748        9.04305       22.35008        0.417
       20.64526       10.08093       19.81165       -0.834
       20.92495        9.16594       19.83994        0.417
       19.82360       10.09600       20.30245        0.417
       10.41257       22.84734        8.19748       -0.834
        9.52864       23.14020        7.97580        0.417
       10.94413       23.09460        7.44082        0.417
       14.52733       12.14227       27.58901       -0.834
       13.72630       11.63545       27.72213        0.417
       14.62078       12.19804       26.63801        0.417
       16.54792        2.51509       19.09399       -0.834
       16.35393        2.16888       19.96504        0.417
       15.86846        2.14365       18.53132        0.417
       12.15633       13.12760        9.97302       -0.834
       12.02930       13.45761       10.86251        0.417
       13.07523       13.31134        9.77783        0.417
       28.21906       17.79066       12.60425       -0.834
       28.04192       18.57177       12.08011        0.417
       29.12839       17.89158       12.88561        0.417
       31.41706       20.37875       14.29381       -0.834
       30.51710       20.54126       14.57647        0.417
       31.89639       21.16497       14.55522        0.417
        9.36349       11.41659       25.79850       -0.834
        8.83498       11.10947       26.53511        0.417
        9.10975       10.85130       25.06891        0.417
        6.37755       22.40363       23.27725       -0.834
        5.44063       22.55628       23.15435        0.417
        6.70092       22.18069       22.40435        0.417
       15.71925        6.61364        8.31361       -0.834
       15.18695        6.30375        9.04632        0.417
       16.57701        6.79256        8.69892        0.417
       23.21168       27.19682       18.32194       -0.834
       23.02733       28.05953       18.69338        0.417
       23.29472       27.35330       17.38127        0.417
       11.84709        6.22687       16.01630       -0.834
       11.72041        6.01859       16.94193        0.417
       11.77236        7.18014       15.97241        0.417
        7.55381       27.51394       20.68905       -0.834
        7.85773       26.83208       21.28816        0.417
        6.78565       27.88780       21.12079        0.417
       26.39788       13.44324       15.76591       -0.834
       26.21384       13.76999       14.88523        0.417
       25.69798       13.80720       16.30804        0.417
       13.05659        7.28142        7.48821       -0.834
       13.23083        7.97951        8.11951        0.417
       13.90087        6.84518        7.37370        0.417
        8.15316       24.40825       13.59059       -0.834
        8.16535       23.45166       13.62263        0.417
        9.06900       24.66375       13.70100        0.417
       20.30958       25.28033       12.04380       -0.834
       19.93653       25.60349       11.22366        0.417
       20.61164       26.06764       12.49672        0.417
       22.76410       17.01486       24.77365       -0.834
       22.49356       17.40658       25.60407        0.417
       22.12782       17.33963       24.13654        0.417
        4.61083       10.90830       11.95125       -0.834
        4.84990       10.54697       12.80479        0.417