%nprocshared=50
%mem=8GB
%chk=Adenine6311-tddft.chk
#p freq td=(nstates=10) cam-b3lyp/6-311+G(d,p) symm=loose

Adenine TDDFT

0 1
 C                  0.66455500   -2.02182100    0.00000000
 N                  1.65900800   -1.12779200    0.00000000
 C                  1.35388600    0.17129000    0.00000000
 C                  0.00000000    0.54328200    0.00000000
 C                 -0.91872100   -0.49549400    0.00000000
 N                 -0.64158800   -1.79886300    0.00000000
 H                  0.97354000   -3.06199500    0.00000000
 N                  2.34828200    1.08083200    0.00000000
 H                  3.30165800    0.76136200    0.00000000
 H                  2.13741700    2.06368200    0.00000000
 N                 -0.63320300    1.77042400    0.00000000
 N                 -2.14267000    0.12348700    0.00000000
 C                 -1.89933300    1.47658800    0.00000000
 H                 -3.03835100   -0.33779600    0.00000000
 H                 -2.70539300    2.19505400    0.00000000

