%nprocshared=28
%mem=10GB
%chk=Thymine_distorted.chk
#p td=(nstates=10) cam-b3lyp/6-311+g(d,p) symm=loose

Thymine distortion

0 1
 N                  0.15573401   -1.65906212    0.00000000
 C                  1.35600210   -0.97894507    0.00000000
 N                  1.19595009    0.39106003    0.00000000
 C                 -0.00000000    1.11535908    0.00000000
 C                 -1.21428809    0.29587902    0.00000000
 C                 -1.07362708   -1.03729908    0.00000000
 O                  2.43107018   -1.53059411    0.00000000
 O                  0.01763600    2.32620917    0.00000000
 H                  0.23027302   -2.66417919    0.00000000
 H                  2.04984015    0.93388107    0.00000000
 C                 -2.53344718    1.00026407    0.00000000
 H                 -1.37664816   -1.64825152    0.84089774
 H                 -3.35814024    0.28649502    0.00000000
 H                 -2.62810419    1.64473512    0.87613206
 H                 -2.62810419    1.64473512   -0.87613206

